stage, timestep, time, Stress11, Stress12, Stress13, Stress21, Stress22, Stress23, Stress31, Stress32, Stress33
0, 0, 0, 0, 0, 0, 0, 0, 0, 0, 0, 0
0, 1, 0.1, 3.60051, 7.57087e-13, -1.16541e-13, 7.57087e-13, -1.0509e-13, 1.25912e-13, -1.16541e-13, 1.25912e-13, -4.39041e-12
0, 2, 0.2, 7.20099, 7.73286e-13, -1.78045e-13, 7.73286e-13, 2.26069e-13, 2.35335e-13, -1.78045e-13, 2.35335e-13, -3.80977e-12
0, 3, 0.3, 10.8014, 7.1242e-13, -1.0522e-13, 7.1242e-13, 8.02743e-13, 1.70478e-13, -1.0522e-13, 1.70478e-13, -3.52661e-12
0, 4, 0.4, 14.4018, 7.99348e-13, -1.49045e-14, 7.99348e-13, -1.40547e-13, 2.12991e-13, -1.49045e-14, 2.12991e-13, -4.5286e-12
0, 5, 0.5, 18.0022, 7.38577e-13, -1.14701e-13, 7.38577e-13, 4.74343e-13, 1.89101e-13, -1.14701e-13, 1.89101e-13, -3.59084e-12
0, 6, 0.6, 21.6025, 7.74344e-13, -6.06372e-14, 7.74344e-13, 7.10144e-13, 1.75086e-13, -6.06372e-14, 1.75086e-13, -3.82467e-12
0, 7, 0.7, 25.2026, 6.25678e-13, 1.56763e-14, 6.25678e-13, 3.18691e-12, 2.09768e-13, 1.56763e-14, 2.09768e-13, -1.27452e-12
0, 8, 0.8, 28.8022, 7.50227e-13, -1.34424e-13, 7.50227e-13, 3.93631e-12, 1.74368e-13, -1.34424e-13, 1.74368e-13, -3.63685e-13
0, 9, 0.9, 32.4, 7.74307e-13, -1.55461e-13, 7.74307e-13, 1.44004e-11, 1.50452e-13, -1.55461e-13, 1.50452e-13, 1.01444e-11
0, 10, 1, 35.9924, 7.18944e-13, -1.68197e-13, 7.18944e-13, 4.52611e-11, 1.8421e-13, -1.68197e-13, 1.8421e-13, 4.06816e-11
0, 11, 1.1, 39.5704, 7.93465e-13, -1.28153e-13, 7.93465e-13, 1.32642e-10, 1.83263e-13, -1.28153e-13, 1.83263e-13, 1.2835e-10
0, 12, 1.2, 43.1132, 6.55395e-13, -7.32542e-14, 6.55395e-13, 3.38423e-10, 3.26435e-13, -7.32542e-14, 3.26435e-13, 3.34013e-10
0, 13, 1.3, 46.5783, 6.62183e-13, -1.02329e-13, 6.62183e-13, 7.95997e-10, 1.75347e-13, -1.02329e-13, 1.75347e-13, 7.91682e-10
0, 14, 1.4, 49.8859, 7.14404e-13, -1.67587e-13, 7.14404e-13, 1.71643e-09, 2.72323e-13, -1.67587e-13, 2.72323e-13, 1.71117e-09
0, 15, 1.5, 52.9051, 1.406e-12, 1.87073e-13, 1.406e-12, 3.41145e-09, 4.19784e-13, 1.87073e-13, 4.19784e-13, 3.40592e-09
0, 16, 1.6, 55.4599, 8.37978e-13, -4.88027e-14, 8.37978e-13, 6.14357e-09, 3.85424e-13, -4.88027e-14, 3.85424e-13, 6.13719e-09
0, 17, 1.7, 57.3847, 4.12635e-13, -2.32192e-13, 4.12635e-13, 9.83538e-09, 1.29435e-12, -2.32192e-13, 1.29435e-12, 9.82789e-09
0, 18, 1.8, 58.6283, 9.79222e-13, -1.26327e-13, 9.79222e-13, 1.38475e-08, 1.53732e-12, -1.26327e-13, 1.53732e-12, 1.38394e-08
0, 19, 1.9, 59.3084, 8.84516e-13, 1.6026e-13, 8.84516e-13, 1.71539e-08, 1.51966e-12, 1.6026e-13, 1.51966e-12, 1.71456e-08
0, 20, 2, 59.6313, 1.14853e-12, 5.42767e-13, 1.14853e-12, 1.9259e-08, 1.71169e-12, 5.42767e-13, 1.71169e-12, 1.92505e-08
0, 21, 2.1, 59.7711, 1.04615e-12, 2.48795e-13, 1.04615e-12, 2.03134e-08, 1.79879e-12, 2.48795e-13, 1.79879e-12, 2.0305e-08
0, 22, 2.2, 59.8287, 1.09747e-12, 7.31341e-13, 1.09747e-12, 2.08037e-08, 1.79346e-12, 7.31341e-13, 1.79346e-12, 2.07955e-08
0, 23, 2.3, 59.8517, 1.58657e-12, 7.95982e-13, 1.58657e-12, 2.09937e-08, 1.78687e-12, 7.95982e-13, 1.78687e-12, 2.09855e-08
0, 24, 2.4, 59.8607, 1.40197e-12, 9.03977e-13, 1.40197e-12, 2.10979e-08, 1.80263e-12, 9.03977e-13, 1.80263e-12, 2.10896e-08
0, 25, 2.5, 59.864, 1.48491e-12, 9.11803e-13, 1.48491e-12, 2.11179e-08, 1.84944e-12, 9.11803e-13, 1.84944e-12, 2.11095e-08
0, 26, 2.6, 59.865, 1.57482e-12, 1.04672e-12, 1.57482e-12, 2.11266e-08, 1.66791e-12, 1.04672e-12, 1.66791e-12, 2.11183e-08
0, 27, 2.7, 59.8651, 1.63658e-12, 1.0551e-12, 1.63658e-12, 2.11296e-08, 1.77526e-12, 1.0551e-12, 1.77526e-12, 2.11205e-08
0, 28, 2.8, 59.8649, 1.67823e-12, 1.38156e-12, 1.67823e-12, 2.11441e-08, 1.50305e-12, 1.38156e-12, 1.50305e-12, 2.11359e-08
0, 29, 2.9, 59.8645, 1.77241e-12, 1.26347e-12, 1.77241e-12, 2.11433e-08, 1.68065e-12, 1.26347e-12, 1.68065e-12, 2.1135e-08
0, 30, 3, 59.8641, 1.87612e-12, 1.3046e-12, 1.87612e-12, 2.11389e-08, 1.53001e-12, 1.3046e-12, 1.53001e-12, 2.11306e-08
0, 31, 3.1, 59.8636, 1.8655e-12, 1.5073e-12, 1.8655e-12, 2.11436e-08, 1.50096e-12, 1.5073e-12, 1.50096e-12, 2.1135e-08
0, 32, 3.2, 59.8631, 1.74512e-12, 1.34247e-12, 1.74512e-12, 2.11269e-08, 1.55604e-12, 1.34247e-12, 1.55604e-12, 2.11185e-08
0, 33, 3.3, 59.8627, 1.65861e-12, 1.08317e-12, 1.65861e-12, 2.11401e-08, 1.44179e-12, 1.08317e-12, 1.44179e-12, 2.1132e-08
0, 34, 3.4, 59.8622, 1.52515e-12, 1.24264e-12, 1.52515e-12, 2.11198e-08, 1.38791e-12, 1.24264e-12, 1.38791e-12, 2.11116e-08
0, 35, 3.5, 59.8617, 1.46619e-12, 1.18593e-12, 1.46619e-12, 2.11228e-08, 1.50929e-12, 1.18593e-12, 1.50929e-12, 2.11149e-08
0, 36, 3.6, 59.8612, 1.77192e-12, 1.25026e-12, 1.77192e-12, 2.11256e-08, 1.59545e-12, 1.25026e-12, 1.59545e-12, 2.11175e-08
0, 37, 3.7, 59.8608, 1.70656e-12, 1.34331e-12, 1.70656e-12, 2.11168e-08, 1.46713e-12, 1.34331e-12, 1.46713e-12, 2.11093e-08
0, 38, 3.8, 59.8603, 1.88008e-12, 1.27715e-12, 1.88008e-12, 2.11182e-08, 1.40484e-12, 1.27715e-12, 1.40484e-12, 2.11097e-08
0, 39, 3.9, 59.8598, 1.66526e-12, 1.16778e-12, 1.66526e-12, 2.11217e-08, 1.53626e-12, 1.16778e-12, 1.53626e-12, 2.11133e-08
0, 40, 4, 59.8593, 1.77591e-12, 1.09107e-12, 1.77591e-12, 2.11165e-08, 1.60209e-12, 1.09107e-12, 1.60209e-12, 2.11081e-08
0, 41, 4.1, 59.8588, 1.35399e-12, 1.03359e-12, 1.35399e-12, 2.1113e-08, 1.27993e-12, 1.03359e-12, 1.27993e-12, 2.11032e-08
0, 42, 4.2, 59.8584, 2.00125e-12, 1.16581e-12, 2.00125e-12, 2.1107e-08, 1.4123e-12, 1.16581e-12, 1.4123e-12, 2.10986e-08
0, 43, 4.3, 59.8579, 1.82077e-12, 1.18957e-12, 1.82077e-12, 2.11116e-08, 1.3166e-12, 1.18957e-12, 1.3166e-12, 2.11031e-08
0, 44, 4.4, 59.8574, 1.72063e-12, 1.17077e-12, 1.72063e-12, 2.1113e-08, 1.42281e-12, 1.17077e-12, 1.42281e-12, 2.1104e-08
0, 45, 4.5, 59.8569, 1.68928e-12, 1.11563e-12, 1.68928e-12, 2.1111e-08, 1.42742e-12, 1.11563e-12, 1.42742e-12, 2.11026e-08
0, 46, 4.6, 59.8565, 1.91065e-12, 1.33803e-12, 1.91065e-12, 2.11096e-08, 1.34396e-12, 1.33803e-12, 1.34396e-12, 2.11013e-08
0, 47, 4.7, 59.856, 1.74749e-12, 1.28925e-12, 1.74749e-12, 2.11069e-08, 1.25788e-12, 1.28925e-12, 1.25788e-12, 2.10979e-08
0, 48, 4.8, 59.8555, 1.80454e-12, 1.08166e-12, 1.80454e-12, 2.11029e-08, 1.39057e-12, 1.08166e-12, 1.39057e-12, 2.10964e-08
0, 49, 4.9, 59.855, 1.65397e-12, 1.10478e-12, 1.65397e-12, 2.1112e-08, 1.26424e-12, 1.10478e-12, 1.26424e-12, 2.11051e-08
0, 50, 5, 59.8546, 1.91136e-12, 9.88285e-13, 1.91136e-12, 2.11063e-08, 1.38379e-12, 9.88285e-13, 1.38379e-12, 2.10977e-08
1, 1, 5.2, 45.4943, 2.8886e-13, 1.61443e-12, 2.8886e-13, 4.21738e-08, -8.16099e-13, 1.61443e-12, -8.16099e-13, 4.21735e-08
1, 2, 5.4, 37.8525, -3.74249e-13, 1.35965e-12, -3.74249e-13, 2.70309e-09, -6.18515e-13, 1.35965e-12, -6.18515e-13, 2.71133e-09
1, 3, 5.6, 30.5991, -9.7381e-13, 1.30121e-12, -9.7381e-13, 4.16762e-10, -9.08887e-13, 1.30121e-12, -9.08887e-13, 4.26662e-10
1, 4, 5.8, 23.4102, -5.51229e-13, 1.23342e-12, -5.51229e-13, 3.20136e-11, -8.12646e-13, 1.23342e-12, -8.12646e-13, 3.96597e-11
1, 5, 6, 16.2294, -5.12934e-13, 1.28377e-12, -5.12934e-13, -1.21911e-11, -8.32287e-13, 1.28377e-12, -8.32287e-13, -3.64979e-12
1, 6, 6.2, 9.04897, -5.80048e-13, 1.41387e-12, -5.80048e-13, -1.54278e-11, -7.3696e-13, 1.41387e-12, -7.3696e-13, -6.73976e-12
1, 7, 6.4, 1.8684, -7.09568e-13, 1.35265e-12, -7.09568e-13, -1.59793e-11, -5.95468e-13, 1.35265e-12, -5.95468e-13, -7.40134e-12
1, 8, 6.6, -5.31232, -6.91638e-13, 1.25589e-12, -6.91638e-13, -1.57876e-11, -6.36525e-13, 1.25589e-12, -6.36525e-13, -7.39304e-12
1, 9, 6.8, -12.4932, -6.31474e-13, 1.20608e-12, -6.31474e-13, -1.50856e-11, -8.65525e-13, 1.20608e-12, -8.65525e-13, -6.23615e-12
1, 10, 7, -19.6742, -1.79041e-13, 1.64828e-12, -1.79041e-13, -1.52601e-11, -7.95109e-13, 1.64828e-12, -7.95109e-13, -6.36658e-12
1, 11, 7.2, -26.8553, -7.04908e-13, 1.16176e-12, -7.04908e-13, -1.61174e-11, -9.15974e-13, 1.16176e-12, -9.15974e-13, -7.38535e-12
1, 12, 7.4, -34.0343, -2.4613e-13, 1.25019e-12, -2.4613e-13, -2.81062e-11, -9.24129e-13, 1.25019e-12, -9.24129e-13, -2.00198e-11
1, 13, 7.6, -41.1905, -1.74584e-13, 1.48544e-12, -1.74584e-13, -1.74312e-10, -5.64713e-13, 1.48544e-12, -5.64713e-13, -1.65389e-10
1, 14, 7.8, -48.2014, -6.59519e-13, 1.01388e-12, -6.59519e-13, -1.02154e-09, -8.74093e-13, 1.01388e-12, -8.74093e-13, -1.01308e-09
1, 15, 8, -54.5612, -7.09257e-13, 1.37958e-12, -7.09257e-13, -4.8597e-09, -1.03934e-12, 1.37958e-12, -1.03934e-12, -4.84798e-09
1, 16, 8.2, -58.9048, -1.22797e-12, 7.14054e-13, -1.22797e-12, -1.6695e-08, -1.54445e-12, 7.14054e-13, -1.54445e-12, -1.66809e-08
1, 17, 8.4, -59.9814, -8.39542e-13, 4.67748e-14, -8.39542e-13, -3.58757e-08, -3.44472e-12, 4.67748e-14, -3.44472e-12, -3.58591e-08
1, 18, 8.6, -59.8466, -2.10177e-12, -1.23044e-12, -2.10177e-12, -4.29899e-08, -3.73798e-12, -1.23044e-12, -3.73798e-12, -4.29728e-08
1, 19, 8.8, -59.8758, -2.42257e-12, -1.76985e-12, -2.42257e-12, -4.20284e-08, -3.50502e-12, -1.76985e-12, -3.50502e-12, -4.20108e-08
1, 20, 9, -59.8711, -2.76236e-12, -2.31557e-12, -2.76236e-12, -4.22302e-08, -3.25515e-12, -2.31557e-12, -3.25515e-12, -4.22145e-08
1, 21, 9.2, -59.8732, -3.23397e-12, -2.4514e-12, -3.23397e-12, -4.22001e-08, -3.46965e-12, -2.4514e-12, -3.46965e-12, -4.21822e-08
1, 22, 9.4, -59.874, -3.09087e-12, -2.5361e-12, -3.09087e-12, -4.22201e-08, -3.24963e-12, -2.5361e-12, -3.24963e-12, -4.22038e-08
1, 23, 9.6, -59.875, -3.29986e-12, -2.39135e-12, -3.29986e-12, -4.2219e-08, -3.13698e-12, -2.39135e-12, -3.13698e-12, -4.22016e-08
1, 24, 9.8, -59.8759, -3.38834e-12, -2.62873e-12, -3.38834e-12, -4.22436e-08, -3.07417e-12, -2.62873e-12, -3.07417e-12, -4.2226e-08
1, 25, 10, -59.8769, -3.05209e-12, -2.32284e-12, -3.05209e-12, -4.22406e-08, -3.31122e-12, -2.32284e-12, -3.31122e-12, -4.22235e-08
1, 26, 10.2, -59.8778, -3.19113e-12, -2.59407e-12, -3.19113e-12, -4.22365e-08, -3.04992e-12, -2.59407e-12, -3.04992e-12, -4.22194e-08
1, 27, 10.4, -59.8788, -3.48564e-12, -2.42315e-12, -3.48564e-12, -4.22603e-08, -2.77821e-12, -2.42315e-12, -2.77821e-12, -4.22436e-08
1, 28, 10.6, -59.8797, -3.37095e-12, -2.33253e-12, -3.37095e-12, -4.22671e-08, -3.04274e-12, -2.33253e-12, -3.04274e-12, -4.22493e-08
1, 29, 10.8, -59.8807, -3.217e-12, -2.38373e-12, -3.217e-12, -4.22529e-08, -2.79773e-12, -2.38373e-12, -2.79773e-12, -4.22356e-08
1, 30, 11, -59.8817, -3.53552e-12, -2.49756e-12, -3.53552e-12, -4.22633e-08, -2.68519e-12, -2.49756e-12, -2.68519e-12, -4.22462e-08
1, 31, 11.2, -59.8826, -3.36292e-12, -2.12002e-12, -3.36292e-12, -4.22698e-08, -2.52182e-12, -2.12002e-12, -2.52182e-12, -4.22531e-08
1, 32, 11.4, -59.8836, -3.39086e-12, -2.03778e-12, -3.39086e-12, -4.22789e-08, -2.64023e-12, -2.03778e-12, -2.64023e-12, -4.2262e-08
1, 33, 11.6, -59.8845, -3.52955e-12, -2.01048e-12, -3.52955e-12, -4.22867e-08, -2.508e-12, -2.01048e-12, -2.508e-12, -4.22696e-08
1, 34, 11.8, -59.8855, -3.11258e-12, -2.11628e-12, -3.11258e-12, -4.22996e-08, -2.50129e-12, -2.11628e-12, -2.50129e-12, -4.22824e-08
1, 35, 12, -59.8865, -3.0215e-12, -1.78189e-12, -3.0215e-12, -4.23051e-08, -2.4861e-12, -1.78189e-12, -2.4861e-12, -4.22902e-08
1, 36, 12.2, -59.8874, -3.22756e-12, -1.88581e-12, -3.22756e-12, -4.23006e-08, -2.49282e-12, -1.88581e-12, -2.49282e-12, -4.22838e-08
1, 37, 12.4, -59.8884, -3.28757e-12, -2.06571e-12, -3.28757e-12, -4.23138e-08, -2.64021e-12, -2.06571e-12, -2.64021e-12, -4.22969e-08
1, 38, 12.6, -59.8893, -3.37441e-12, -1.78271e-12, -3.37441e-12, -4.23189e-08, -2.515e-12, -1.78271e-12, -2.515e-12, -4.2302e-08
1, 39, 12.8, -59.8903, -3.55069e-12, -1.81329e-12, -3.55069e-12, -4.23327e-08, -2.61296e-12, -1.81329e-12, -2.61296e-12, -4.23153e-08
1, 40, 13, -59.8913, -3.13831e-12, -1.88798e-12, -3.13831e-12, -4.23381e-08, -2.40169e-12, -1.88798e-12, -2.40169e-12, -4.23231e-08
1, 41, 13.2, -59.8922, -3.23487e-12, -1.50847e-12, -3.23487e-12, -4.23427e-08, -2.47665e-12, -1.50847e-12, -2.47665e-12, -4.23252e-08
1, 42, 13.4, -59.8932, -3.16815e-12, -1.75283e-12, -3.16815e-12, -4.23552e-08, -2.55264e-12, -1.75283e-12, -2.55264e-12, -4.23404e-08
1, 43, 13.6, -59.8941, -3.18969e-12, -1.70318e-12, -3.18969e-12, -4.23606e-08, -2.45119e-12, -1.70318e-12, -2.45119e-12, -4.23443e-08
1, 44, 13.8, -59.8951, -3.36392e-12, -1.40313e-12, -3.36392e-12, -4.2361e-08, -2.59064e-12, -1.40313e-12, -2.59064e-12, -4.23446e-08
1, 45, 14, -59.8961, -3.2171e-12, -1.40125e-12, -3.2171e-12, -4.23673e-08, -2.42754e-12, -1.40125e-12, -2.42754e-12, -4.23506e-08
1, 46, 14.2, -59.897, -3.39522e-12, -1.35263e-12, -3.39522e-12, -4.23766e-08, -2.53771e-12, -1.35263e-12, -2.53771e-12, -4.23591e-08
1, 47, 14.4, -59.898, -3.46011e-12, -1.39097e-12, -3.46011e-12, -4.23864e-08, -2.52974e-12, -1.39097e-12, -2.52974e-12, -4.237e-08
1, 48, 14.6, -59.8989, -3.56758e-12, -1.23591e-12, -3.56758e-12, -4.23924e-08, -2.44879e-12, -1.23591e-12, -2.44879e-12, -4.23761e-08
1, 49, 14.8, -59.8999, -3.61723e-12, -1.54806e-12, -3.61723e-12, -4.23938e-08, -2.45342e-12, -1.54806e-12, -2.45342e-12, -4.23759e-08
1, 50, 15, -59.9009, -3.32551e-12, -1.35053e-12, -3.32551e-12, -4.23987e-08, -2.33758e-12, -1.35053e-12, -2.33758e-12, -4.23825e-08
2, 1, 15.08, -49.7904, -5.74219e-13, -2.01371e-12, -5.74219e-13, -1.69663e-08, 8.57847e-13, -2.01371e-12, 8.57847e-13, -1.69707e-08
2, 2, 15.16, -42.1137, -2.68957e-13, -1.85197e-12, -2.68957e-13, -2.68385e-09, 1.48926e-12, -1.85197e-12, 1.48926e-12, -2.69193e-09
2, 3, 15.24, -34.8066, 1.41857e-13, -1.95618e-12, 1.41857e-13, -5.03171e-10, 1.34279e-12, -1.95618e-12, 1.34279e-12, -5.1136e-10
2, 4, 15.32, -27.5724, -2.5311e-13, -1.96805e-12, -2.5311e-13, -8.0517e-11, 1.47087e-12, -1.96805e-12, 1.47087e-12, -8.87208e-11
2, 5, 15.4, -20.3497, 1.98321e-13, -2.07762e-12, 1.98321e-13, -1.31252e-11, 1.55211e-12, -2.07762e-12, 1.55211e-12, -2.1329e-11
2, 6, 15.48, -13.1283, -3.26971e-13, -1.90791e-12, -3.26971e-13, -4.12036e-12, 1.38985e-12, -1.90791e-12, 1.38985e-12, -1.41733e-11
2, 7, 15.56, -5.90721, -2.4604e-13, -2.06253e-12, -2.4604e-13, -5.11617e-12, 1.62022e-12, -2.06253e-12, 1.62022e-12, -1.41418e-11
2, 8, 15.64, 1.31375, -3.72282e-13, -1.97218e-12, -3.72282e-13, -4.20001e-12, 1.4302e-12, -1.97218e-12, 1.4302e-12, -1.23744e-11
2, 9, 15.72, 8.53456, -2.14366e-13, -1.8001e-12, -2.14366e-13, -5.00041e-12, 1.41146e-12, -1.8001e-12, 1.41146e-12, -1.31895e-11
2, 10, 15.8, 15.7552, -2.6252e-13, -1.8729e-12, -2.6252e-13, -4.16993e-12, 1.42438e-12, -1.8729e-12, 1.42438e-12, -1.24911e-11
2, 11, 15.88, 22.9757, -1.0841e-12, -2.10589e-12, -1.0841e-12, -3.6455e-12, 1.57307e-12, -2.10589e-12, 1.57307e-12, -1.26638e-11
2, 12, 15.96, 30.1958, -2.60284e-13, -1.91322e-12, -2.60284e-13, -2.29084e-12, 1.34278e-12, -1.91322e-12, 1.34278e-12, -1.03845e-11
2, 13, 16.04, 37.4129, -2.88299e-13, -1.96895e-12, -2.88299e-13, 1.69143e-11, 1.39426e-12, -1.96895e-12, 1.39426e-12, 7.33838e-12
2, 14, 16.12, 44.6068, -1.69391e-13, -1.93219e-12, -1.69391e-13, 1.48899e-10, 1.56028e-12, -1.93219e-12, 1.56028e-12, 1.40607e-10
2, 15, 16.2, 51.6749, -1.68424e-13, -1.64913e-12, -1.68424e-13, 8.87725e-10, 1.64324e-12, -1.64913e-12, 1.64324e-12, 8.79477e-10
2, 16, 16.28, 58.2337, -3.51598e-13, -1.78719e-12, -3.51598e-13, 3.87627e-09, 1.67965e-12, -1.78719e-12, 1.67965e-12, 3.86648e-09
2, 17, 16.36, 63.27, 4.02812e-13, -1.22042e-12, 4.02812e-13, 1.28264e-08, 1.90419e-12, -1.22042e-12, 1.90419e-12, 1.28142e-08
2, 18, 16.44, 65.4848, 6.06709e-13, -1.39347e-13, 6.06709e-13, 2.9405e-08, 4.29251e-12, -1.39347e-13, 4.29251e-12, 2.93886e-08
2, 19, 16.52, 65.6437, 9.40076e-13, 1.10269e-12, 9.40076e-13, 4.14891e-08, 4.42619e-12, 1.10269e-12, 4.42619e-12, 4.1471e-08
2, 20, 16.6, 65.6283, 2.78712e-12, 2.64852e-12, 2.78712e-12, 4.25081e-08, 4.20082e-12, 2.64852e-12, 4.20082e-12, 4.24912e-08
2, 21, 16.68, 65.6287, 3.07027e-12, 3.26635e-12, 3.07027e-12, 4.23931e-08, 4.04068e-12, 3.26635e-12, 4.04068e-12, 4.23774e-08
2, 22, 16.76, 65.6275, 3.5023e-12, 3.5026e-12, 3.5023e-12, 4.24061e-08, 3.93943e-12, 3.5026e-12, 3.93943e-12, 4.23901e-08
2, 23, 16.84, 65.6265, 4.04971e-12, 3.60388e-12, 4.04971e-12, 4.23949e-08, 3.99782e-12, 3.60388e-12, 3.99782e-12, 4.23771e-08
2, 24, 16.92, 65.6254, 3.71739e-12, 3.61494e-12, 3.71739e-12, 4.23949e-08, 3.86992e-12, 3.61494e-12, 3.86992e-12, 4.23788e-08
2, 25, 17, 65.6244, 3.72642e-12, 3.62562e-12, 3.72642e-12, 4.23829e-08, 3.75941e-12, 3.62562e-12, 3.75941e-12, 4.23666e-08
2, 26, 17.08, 65.6233, 3.76658e-12, 3.47434e-12, 3.76658e-12, 4.23762e-08, 3.63969e-12, 3.47434e-12, 3.63969e-12, 4.23589e-08
2, 27, 17.16, 65.6223, 4.00603e-12, 3.59633e-12, 4.00603e-12, 4.23628e-08, 3.48655e-12, 3.59633e-12, 3.48655e-12, 4.23441e-08
2, 28, 17.24, 65.6212, 3.91318e-12, 3.48914e-12, 3.91318e-12, 4.23579e-08, 3.4943e-12, 3.48914e-12, 3.4943e-12, 4.2342e-08
2, 29, 17.32, 65.6202, 3.90915e-12, 3.42885e-12, 3.90915e-12, 4.23614e-08, 3.38929e-12, 3.42885e-12, 3.38929e-12, 4.23454e-08
2, 30, 17.4, 65.6191, 3.83624e-12, 3.2828e-12, 3.83624e-12, 4.23517e-08, 3.30925e-12, 3.2828e-12, 3.30925e-12, 4.23356e-08
2, 31, 17.48, 65.6181, 3.94709e-12, 3.13627e-12, 3.94709e-12, 4.23512e-08, 3.15251e-12, 3.13627e-12, 3.15251e-12, 4.23353e-08
2, 32, 17.56, 65.617, 4.08071e-12, 3.22604e-12, 4.08071e-12, 4.23301e-08, 3.04628e-12, 3.22604e-12, 3.04628e-12, 4.23141e-08
2, 33, 17.64, 65.616, 3.69042e-12, 2.94313e-12, 3.69042e-12, 4.23387e-08, 3.12574e-12, 2.94313e-12, 3.12574e-12, 4.23223e-08
2, 34, 17.72, 65.6149, 3.88668e-12, 2.98056e-12, 3.88668e-12, 4.23282e-08, 3.11906e-12, 2.98056e-12, 3.11906e-12, 4.23114e-08
2, 35, 17.8, 65.6139, 3.42144e-12, 2.92305e-12, 3.42144e-12, 4.2318e-08, 3.19949e-12, 2.92305e-12, 3.19949e-12, 4.23009e-08
2, 36, 17.88, 65.6128, 3.91029e-12, 2.94018e-12, 3.91029e-12, 4.23059e-08, 3.15712e-12, 2.94018e-12, 3.15712e-12, 4.22894e-08
2, 37, 17.96, 65.6118, 3.81452e-12, 3.00216e-12, 3.81452e-12, 4.23002e-08, 3.00968e-12, 3.00216e-12, 3.00968e-12, 4.2284e-08
2, 38, 18.04, 65.6107, 3.94645e-12, 2.93466e-12, 3.94645e-12, 4.22953e-08, 3.05294e-12, 2.93466e-12, 3.05294e-12, 4.22785e-08
2, 39, 18.12, 65.6097, 3.80453e-12, 3.04404e-12, 3.80453e-12, 4.22907e-08, 3.09662e-12, 3.04404e-12, 3.09662e-12, 4.22731e-08
2, 40, 18.2, 65.6086, 3.76943e-12, 2.91435e-12, 3.76943e-12, 4.22818e-08, 3.0067e-12, 2.91435e-12, 3.0067e-12, 4.22654e-08
2, 41, 18.28, 65.6076, 4.14676e-12, 2.7072e-12, 4.14676e-12, 4.22738e-08, 2.91872e-12, 2.7072e-12, 2.91872e-12, 4.22575e-08
2, 42, 18.36, 65.6065, 3.39998e-12, 2.60723e-12, 3.39998e-12, 4.22637e-08, 2.89063e-12, 2.60723e-12, 2.89063e-12, 4.22471e-08
2, 43, 18.44, 65.6055, 3.69946e-12, 2.46927e-12, 3.69946e-12, 4.22684e-08, 2.99061e-12, 2.46927e-12, 2.99061e-12, 4.22513e-08
2, 44, 18.52, 65.6045, 3.69554e-12, 2.50689e-12, 3.69554e-12, 4.22467e-08, 2.81693e-12, 2.50689e-12, 2.81693e-12, 4.22306e-08
2, 45, 18.6, 65.6034, 3.81267e-12, 2.52337e-12, 3.81267e-12, 4.22525e-08, 2.92341e-12, 2.52337e-12, 2.92341e-12, 4.22356e-08
2, 46, 18.68, 65.6024, 3.60515e-12, 2.39567e-12, 3.60515e-12, 4.22435e-08, 2.75599e-12, 2.39567e-12, 2.75599e-12, 4.22269e-08
2, 47, 18.76, 65.6013, 4.13811e-12, 2.29866e-12, 4.13811e-12, 4.22429e-08, 2.86521e-12, 2.29866e-12, 2.86521e-12, 4.22264e-08
2, 48, 18.84, 65.6003, 3.47541e-12, 2.61579e-12, 3.47541e-12, 4.22251e-08, 2.89806e-12, 2.61579e-12, 2.89806e-12, 4.22089e-08
2, 49, 18.92, 65.5992, 3.38277e-12, 2.20511e-12, 3.38277e-12, 4.22294e-08, 2.77725e-12, 2.20511e-12, 2.77725e-12, 4.22124e-08
2, 50, 19, 65.5982, 4.23397e-12, 2.44539e-12, 4.23397e-12, 4.22151e-08, 2.68492e-12, 2.44539e-12, 2.68492e-12, 4.21983e-08
3, 1, 19.08, 51.2363, 1.48312e-12, 3.4564e-12, 1.48312e-12, 4.2182e-08, -1.04206e-12, 3.4564e-12, -1.04206e-12, 4.21815e-08
3, 2, 19.16, 43.449, 1.88016e-13, 3.2073e-12, 1.88016e-13, 3.5442e-09, -1.13241e-12, 3.2073e-12, -1.13241e-12, 3.55288e-09
3, 3, 19.24, 36.1516, 5.54735e-13, 3.20446e-12, 5.54735e-13, 6.69269e-10, -1.19694e-12, 3.20446e-12, -1.19694e-12, 6.78501e-10
3, 4, 19.32, 28.9522, 5.85959e-13, 3.21576e-12, 5.85959e-13, 8.25335e-11, -1.2354e-12, 3.21576e-12, -1.2354e-12, 9.14197e-11
3, 5, 19.4, 21.7692, 5.70156e-13, 3.3277e-12, 5.70156e-13, -3.50591e-12, -1.26888e-12, 3.3277e-12, -1.26888e-12, 5.31422e-12
3, 6, 19.48, 14.5879, 5.03152e-13, 3.06458e-12, 5.03152e-13, -1.46236e-11, -1.27192e-12, 3.06458e-12, -1.27192e-12, -5.67874e-12
3, 7, 19.56, 7.40654, 4.75276e-13, 2.91446e-12, 4.75276e-13, -1.49081e-11, -1.12868e-12, 2.91446e-12, -1.12868e-12, -7.08593e-12
3, 8, 19.64, 0.225056, 5.21235e-13, 3.09079e-12, 5.21235e-13, -1.49891e-11, -1.15394e-12, 3.09079e-12, -1.15394e-12, -6.301e-12
3, 9, 19.72, -6.95659, 5.69833e-13, 2.99653e-12, 5.69833e-13, -1.5293e-11, -1.21857e-12, 2.99653e-12, -1.21857e-12, -6.56094e-12
3, 10, 19.8, -14.1384, 5.88695e-13, 3.33939e-12, 5.88695e-13, -1.39415e-11, -1.3758e-12, 3.33939e-12, -1.3758e-12, -5.26817e-12
3, 11, 19.88, -21.3203, 1.12441e-12, 2.88082e-12, 1.12441e-12, -1.02571e-11, -9.4704e-13, 2.88082e-12, -9.4704e-13, -3.55027e-12
3, 12, 19.96, -28.5024, 7.26921e-13, 3.00473e-12, 7.26921e-13, -1.52541e-11, -1.27781e-12, 3.00473e-12, -1.27781e-12, -6.41924e-12
3, 13, 20.04, -35.6829, 7.94089e-13, 3.04504e-12, 7.94089e-13, -2.71228e-11, -1.13967e-12, 3.04504e-12, -1.13967e-12, -1.83613e-11
3, 14, 20.12, -42.8491, 7.74916e-13, 2.97758e-12, 7.74916e-13, -1.10561e-10, -1.17754e-12, 2.97758e-12, -1.17754e-12, -1.01815e-10
3, 15, 20.2, -49.9303, 1.03153e-12, 2.74131e-12, 1.03153e-12, -6.0847e-10, -1.33632e-12, 2.74131e-12, -1.33632e-12, -6.01e-10
3, 16, 20.28, -56.6454, 6.31075e-13, 2.87003e-12, 6.31075e-13, -2.76492e-09, -1.20762e-12, 2.87003e-12, -1.20762e-12, -2.75545e-09
3, 17, 20.36, -62.1766, -2.15533e-14, 2.60604e-12, -2.15533e-14, -9.72554e-09, -1.56659e-12, 2.60604e-12, -1.56659e-12, -9.71269e-09
3, 18, 20.44, -65.1669, 5.11496e-13, 1.81416e-12, 5.11496e-13, -2.46368e-08, -3.42393e-12, 1.81416e-12, -3.42393e-12, -2.46203e-08
3, 19, 20.52, -65.6439, -1.19642e-12, 1.56753e-13, -1.19642e-12, -3.93987e-08, -4.11912e-12, 1.56753e-13, -4.11912e-12, -3.9381e-08
3, 20, 20.6, -65.6145, -1.7382e-12, -1.02541e-12, -1.7382e-12, -4.23643e-08, -3.91374e-12, -1.02541e-12, -3.91374e-12, -4.23471e-08
3, 21, 20.68, -65.6185, -2.07638e-12, -1.74313e-12, -2.07638e-12, -4.21865e-08, -3.86223e-12, -1.74313e-12, -3.86223e-12, -4.21699e-08
3, 22, 20.76, -65.6193, -2.53525e-12, -2.259e-12, -2.53525e-12, -4.22153e-08, -3.71889e-12, -2.259e-12, -3.71889e-12, -4.21996e-08
3, 23, 20.84, -65.6204, -2.59631e-12, -2.44635e-12, -2.59631e-12, -4.22134e-08, -3.554e-12, -2.44635e-12, -3.554e-12, -4.21961e-08
3, 24, 20.92, -65.6214, -2.77224e-12, -2.72675e-12, -2.77224e-12, -4.22298e-08, -3.50794e-12, -2.72675e-12, -3.50794e-12, -4.22142e-08
3, 25, 21, -65.6225, -3.14854e-12, -2.89406e-12, -3.14854e-12, -4.22266e-08, -3.28306e-12, -2.89406e-12, -3.28306e-12, -4.22115e-08
3, 26, 21.08, -65.6235, -3.1331e-12, -2.81011e-12, -3.1331e-12, -4.22282e-08, -3.24989e-12, -2.81011e-12, -3.24989e-12, -4.22145e-08
3, 27, 21.16, -65.6246, -3.06314e-12, -2.46881e-12, -3.06314e-12, -4.22547e-08, -3.21751e-12, -2.46881e-12, -3.21751e-12, -4.22375e-08
3, 28, 21.24, -65.6256, -3.15989e-12, -2.40367e-12, -3.15989e-12, -4.22526e-08, -3.43795e-12, -2.40367e-12, -3.43795e-12, -4.22354e-08
3, 29, 21.32, -65.6267, -3.50066e-12, -2.55807e-12, -3.50066e-12, -4.22774e-08, -3.21894e-12, -2.55807e-12, -3.21894e-12, -4.22608e-08
3, 30, 21.4, -65.6277, -3.11502e-12, -2.54857e-12, -3.11502e-12, -4.2259e-08, -2.94737e-12, -2.54857e-12, -2.94737e-12, -4.22419e-08
3, 31, 21.48, -65.6288, -3.32445e-12, -2.45822e-12, -3.32445e-12, -4.22731e-08, -3.1931e-12, -2.45822e-12, -3.1931e-12, -4.2256e-08
3, 32, 21.56, -65.6298, -3.28162e-12, -2.30657e-12, -3.28162e-12, -4.2282e-08, -2.97601e-12, -2.30657e-12, -2.97601e-12, -4.22646e-08
3, 33, 21.64, -65.6309, -3.27704e-12, -2.09509e-12, -3.27704e-12, -4.22913e-08, -3.2112e-12, -2.09509e-12, -3.2112e-12, -4.22746e-08
3, 34, 21.72, -65.6319, -3.21754e-12, -2.02057e-12, -3.21754e-12, -4.22831e-08, -2.83225e-12, -2.02057e-12, -2.83225e-12, -4.22662e-08
3, 35, 21.8, -65.633, -3.23113e-12, -2.28527e-12, -3.23113e-12, -4.22912e-08, -2.96606e-12, -2.28527e-12, -2.96606e-12, -4.22741e-08
3, 36, 21.88, -65.634, -3.33864e-12, -2.23692e-12, -3.33864e-12, -4.23054e-08, -2.79488e-12, -2.23692e-12, -2.79488e-12, -4.22888e-08
3, 37, 21.96, -65.6351, -3.21517e-12, -2.24674e-12, -3.21517e-12, -4.23116e-08, -2.69497e-12, -2.24674e-12, -2.69497e-12, -4.22968e-08
3, 38, 22.04, -65.6361, -3.32432e-12, -1.97707e-12, -3.32432e-12, -4.23175e-08, -2.79859e-12, -1.97707e-12, -2.79859e-12, -4.23007e-08
3, 39, 22.12, -65.6372, -3.27954e-12, -2.06547e-12, -3.27954e-12, -4.23325e-08, -2.70971e-12, -2.06547e-12, -2.70971e-12, -4.2316e-08
3, 40, 22.2, -65.6382, -3.39375e-12, -1.93281e-12, -3.39375e-12, -4.23303e-08, -2.69556e-12, -1.93281e-12, -2.69556e-12, -4.23137e-08
3, 41, 22.28, -65.6393, -3.16765e-12, -1.83735e-12, -3.16765e-12, -4.23451e-08, -2.69791e-12, -1.83735e-12, -2.69791e-12, -4.233e-08
3, 42, 22.36, -65.6403, -3.49023e-12, -1.56474e-12, -3.49023e-12, -4.23429e-08, -2.95786e-12, -1.56474e-12, -2.95786e-12, -4.23261e-08
3, 43, 22.44, -65.6414, -2.65546e-12, -1.73997e-12, -2.65546e-12, -4.23539e-08, -2.9025e-12, -1.73997e-12, -2.9025e-12, -4.23377e-08
3, 44, 22.52, -65.6424, -2.76116e-12, -1.72704e-12, -2.76116e-12, -4.23516e-08, -2.93601e-12, -1.72704e-12, -2.93601e-12, -4.23348e-08
3, 45, 22.6, -65.6435, -3.41984e-12, -1.75055e-12, -3.41984e-12, -4.23683e-08, -2.7923e-12, -1.75055e-12, -2.7923e-12, -4.23516e-08
3, 46, 22.68, -65.6445, -3.43849e-12, -1.58287e-12, -3.43849e-12, -4.23719e-08, -2.94688e-12, -1.58287e-12, -2.94688e-12, -4.23549e-08
3, 47, 22.76, -65.6456, -2.77802e-12, -1.52321e-12, -2.77802e-12, -4.23782e-08, -2.81863e-12, -1.52321e-12, -2.81863e-12, -4.23612e-08
3, 48, 22.84, -65.6467, -3.64702e-12, -1.68811e-12, -3.64702e-12, -4.23907e-08, -2.52426e-12, -1.68811e-12, -2.52426e-12, -4.23739e-08
3, 49, 22.92, -65.6477, -3.34866e-12, -1.38599e-12, -3.34866e-12, -4.23914e-08, -2.5725e-12, -1.38599e-12, -2.5725e-12, -4.23731e-08
3, 50, 23, -65.6488, -3.63894e-12, -1.62914e-12, -3.63894e-12, -4.2401e-08, -2.71235e-12, -1.62914e-12, -2.71235e-12, -4.23843e-08
4, 1, 23.032, -55.5394, -2.47021e-13, -2.40916e-12, -2.47021e-13, -1.69729e-08, 2.70823e-13, -2.40916e-12, 2.70823e-13, -1.69793e-08
4, 2, 23.064, -47.7758, -2.75411e-13, -2.39684e-12, -2.75411e-13, -3.18818e-09, 8.0342e-13, -2.39684e-12, 8.0342e-13, -3.19654e-09
4, 3, 23.096, -40.4344, -5.71644e-13, -2.15061e-12, -5.71644e-13, -7.04581e-10, 9.19024e-13, -2.15061e-12, 9.19024e-13, -7.12653e-10
4, 4, 23.128, -33.1909, -6.43113e-13, -2.07477e-12, -6.43113e-13, -1.37588e-10, 1.03131e-12, -2.07477e-12, 1.03131e-12, -1.4588e-10
4, 5, 23.16, -25.9671, -8.71116e-13, -2.27727e-12, -8.71116e-13, -2.47471e-11, 7.37696e-13, -2.27727e-12, 7.37696e-13, -3.44478e-11
4, 6, 23.192, -18.7463, -1.01072e-12, -2.26551e-12, -1.01072e-12, -5.60221e-12, 8.60032e-13, -2.26551e-12, 8.60032e-13, -1.35711e-11
4, 7, 23.224, -11.5259, -7.5092e-13, -2.1572e-12, -7.5092e-13, -3.7564e-12, 8.63585e-13, -2.1572e-12, 8.63585e-13, -1.2195e-11
4, 8, 23.256, -4.30576, -4.31661e-13, -2.08429e-12, -4.31661e-13, -4.08213e-12, 1.02227e-12, -2.08429e-12, 1.02227e-12, -1.21098e-11
4, 9, 23.288, 2.91427, -6.96685e-13, -2.3989e-12, -6.96685e-13, -4.32586e-12, 8.75245e-13, -2.3989e-12, 8.75245e-13, -1.28892e-11
4, 10, 23.32, 10.1341, -7.14268e-13, -2.26175e-12, -7.14268e-13, -3.4809e-12, 9.90219e-13, -2.26175e-12, 9.90219e-13, -1.19965e-11
4, 11, 23.352, 17.3539, -5.31153e-13, -2.06194e-12, -5.31153e-13, -4.2617e-12, 1.06846e-12, -2.06194e-12, 1.06846e-12, -1.20398e-11
4, 12, 23.384, 24.5734, -6.10259e-13, -2.12744e-12, -6.10259e-13, -3.29093e-12, 9.61228e-13, -2.12744e-12, 9.61228e-13, -1.12745e-11
4, 13, 23.416, 31.7927, -4.7812e-13, -2.10661e-12, -4.7812e-13, -3.28845e-12, 8.77411e-13, -2.10661e-12, 8.77411e-13, -1.14408e-11
4, 14, 23.448, 39.0098, -2.06528e-13, -2.2525e-12, -2.06528e-13, 8.41882e-12, 9.82559e-13, -2.2525e-12, 9.82559e-13, -2.39878e-13
4, 15, 23.48, 46.213, -4.13495e-13, -2.37627e-12, -4.13495e-13, 8.7917e-11, 1.09412e-12, -2.37627e-12, 1.09412e-12, 7.99627e-11
4, 16, 23.512, 53.3455, -7.66734e-13, -1.8985e-12, -7.66734e-13, 5.04675e-10, 1.25472e-12, -1.8985e-12, 1.25472e-12, 4.96588e-10
4, 17, 23.544, 60.2009, -2.19535e-13, -2.08197e-12, -2.19535e-13, 2.12105e-09, 1.08832e-12, -2.08197e-12, 1.08832e-12, 2.11191e-09
4, 18, 23.576, 66.202, 4.28193e-14, -1.76792e-12, 4.28193e-14, 7.14942e-09, 1.34638e-12, -1.76792e-12, 1.34638e-12, 7.13877e-09
4, 19, 23.608, 70.2713, -8.88421e-14, -1.21137e-12, -8.88421e-14, 1.84976e-08, 3.33577e-12, -1.21137e-12, 3.33577e-12, 1.84833e-08
4, 20, 23.64, 71.7709, 6.56387e-13, -3.47258e-14, 6.56387e-13, 3.35979e-08, 3.98167e-12, -3.47258e-14, 3.98167e-12, 3.35813e-08
4, 21, 23.672, 71.9253, 2.41329e-12, 1.1815e-12, 2.41329e-12, 4.15005e-08, 4.15317e-12, 1.1815e-12, 4.15317e-12, 4.1484e-08
4, 22, 23.704, 71.9251, 2.66194e-12, 2.21083e-12, 2.66194e-12, 4.2398e-08, 4.01232e-12, 2.21083e-12, 4.01232e-12, 4.23812e-08
4, 23, 23.736, 71.924, 2.78851e-12, 2.76884e-12, 2.78851e-12, 4.2397e-08, 3.61367e-12, 2.76884e-12, 3.61367e-12, 4.23798e-08
4, 24, 23.768, 71.9228, 2.90404e-12, 3.31776e-12, 2.90404e-12, 4.24012e-08, 3.38205e-12, 3.31776e-12, 3.38205e-12, 4.23851e-08
4, 25, 23.8, 71.9217, 3.53185e-12, 3.41669e-12, 3.53185e-12, 4.23976e-08, 3.679e-12, 3.41669e-12, 3.679e-12, 4.23806e-08
4, 26, 23.832, 71.9205, 3.43271e-12, 3.61017e-12, 3.43271e-12, 4.23892e-08, 3.70658e-12, 3.61017e-12, 3.70658e-12, 4.23731e-08
4, 27, 23.864, 71.9194, 3.28632e-12, 3.65098e-12, 3.28632e-12, 4.23641e-08, 3.47339e-12, 3.65098e-12, 3.47339e-12, 4.23479e-08
4, 28, 23.896, 71.9182, 3.43807e-12, 3.53838e-12, 3.43807e-12, 4.2373e-08, 3.76717e-12, 3.53838e-12, 3.76717e-12, 4.23561e-08
4, 29, 23.928, 71.9171, 3.46067e-12, 3.73985e-12, 3.46067e-12, 4.23465e-08, 3.64116e-12, 3.73985e-12, 3.64116e-12, 4.233e-08
4, 30, 23.96, 71.9159, 3.5471e-12, 3.40197e-12, 3.5471e-12, 4.23552e-08, 3.47903e-12, 3.40197e-12, 3.47903e-12, 4.23384e-08
4, 31, 23.992, 71.9148, 3.59188e-12, 3.64336e-12, 3.59188e-12, 4.23501e-08, 3.39124e-12, 3.64336e-12, 3.39124e-12, 4.23339e-08
4, 32, 24.024, 71.9136, 3.82188e-12, 3.58821e-12, 3.82188e-12, 4.23365e-08, 3.31721e-12, 3.58821e-12, 3.31721e-12, 4.23201e-08
4, 33, 24.056, 71.9125, 3.60128e-12, 3.35119e-12, 3.60128e-12, 4.23382e-08, 3.25009e-12, 3.35119e-12, 3.25009e-12, 4.23216e-08
4, 34, 24.088, 71.9113, 3.57053e-12, 3.36104e-12, 3.57053e-12, 4.23258e-08, 3.1777e-12, 3.36104e-12, 3.1777e-12, 4.23095e-08
4, 35, 24.12, 71.9102, 3.44224e-12, 3.29424e-12, 3.44224e-12, 4.23227e-08, 3.09159e-12, 3.29424e-12, 3.09159e-12, 4.23059e-08
4, 36, 24.152, 71.909, 3.7164e-12, 3.41804e-12, 3.7164e-12, 4.23141e-08, 3.06615e-12, 3.41804e-12, 3.06615e-12, 4.22974e-08
4, 37, 24.184, 71.9079, 3.48724e-12, 3.03141e-12, 3.48724e-12, 4.23048e-08, 3.0075e-12, 3.03141e-12, 3.0075e-12, 4.22882e-08
4, 38, 24.216, 71.9067, 3.84508e-12, 3.17041e-12, 3.84508e-12, 4.23092e-08, 3.03118e-12, 3.17041e-12, 3.03118e-12, 4.22929e-08
4, 39, 24.248, 71.9056, 3.7832e-12, 3.14457e-12, 3.7832e-12, 4.22852e-08, 2.75847e-12, 3.14457e-12, 2.75847e-12, 4.22687e-08
4, 40, 24.28, 71.9044, 3.22624e-12, 2.74733e-12, 3.22624e-12, 4.22867e-08, 2.87013e-12, 2.74733e-12, 2.87013e-12, 4.22704e-08
4, 41, 24.312, 71.9033, 3.77674e-12, 2.99296e-12, 3.77674e-12, 4.22806e-08, 3.02804e-12, 2.99296e-12, 3.02804e-12, 4.2264e-08
4, 42, 24.344, 71.9021, 3.65014e-12, 2.75827e-12, 3.65014e-12, 4.22727e-08, 2.93259e-12, 2.75827e-12, 2.93259e-12, 4.22563e-08
4, 43, 24.376, 71.901, 3.85588e-12, 2.67894e-12, 3.85588e-12, 4.22635e-08, 2.90054e-12, 2.67894e-12, 2.90054e-12, 4.22465e-08
4, 44, 24.408, 71.8998, 3.82028e-12, 2.69086e-12, 3.82028e-12, 4.22609e-08, 2.75726e-12, 2.69086e-12, 2.75726e-12, 4.22444e-08
4, 45, 24.44, 71.8987, 3.38865e-12, 2.58609e-12, 3.38865e-12, 4.22453e-08, 2.55607e-12, 2.58609e-12, 2.55607e-12, 4.22293e-08
4, 46, 24.472, 71.8975, 3.5399e-12, 2.50747e-12, 3.5399e-12, 4.22587e-08, 2.81909e-12, 2.50747e-12, 2.81909e-12, 4.22412e-08
4, 47, 24.504, 71.8964, 3.67068e-12, 2.76551e-12, 3.67068e-12, 4.22412e-08, 2.97201e-12, 2.76551e-12, 2.97201e-12, 4.22243e-08
4, 48, 24.536, 71.8953, 3.73733e-12, 2.59861e-12, 3.73733e-12, 4.2229e-08, 2.6563e-12, 2.59861e-12, 2.6563e-12, 4.22131e-08
4, 49, 24.568, 71.8941, 3.81002e-12, 2.11359e-12, 3.81002e-12, 4.22218e-08, 2.695e-12, 2.11359e-12, 2.695e-12, 4.22046e-08
4, 50, 24.6, 71.893, 3.42492e-12, 2.38394e-12, 3.42492e-12, 4.22248e-08, 2.6798e-12, 2.38394e-12, 2.6798e-12, 4.22085e-08
5, 1, 24.632, 57.5292, 1.60303e-12, 3.38409e-12, 1.60303e-12, 4.21888e-08, -9.7691e-13, 3.38409e-12, -9.7691e-13, 4.21887e-08
5, 2, 24.664, 49.5747, 7.29054e-13, 3.3597e-12, 7.29054e-13, 4.5269e-09, -1.10333e-12, 3.3597e-12, -1.10333e-12, 4.53534e-09
5, 3, 24.696, 42.2187, 9.08869e-13, 2.79424e-12, 9.08869e-13, 1.01366e-09, -1.11914e-12, 2.79424e-12, -1.11914e-12, 1.02232e-09
5, 4, 24.728, 35.002, 8.57104e-13, 2.85083e-12, 8.57104e-13, 1.84918e-10, -1.10398e-12, 2.85083e-12, -1.10398e-12, 1.93796e-10
5, 5, 24.76, 27.8147, 1.38711e-12, 3.03582e-12, 1.38711e-12, 1.82343e-11, -1.03534e-12, 3.03582e-12, -1.03534e-12, 2.68417e-11
5, 6, 24.792, 20.6322, 1.29321e-12, 3.00075e-12, 1.29321e-12, -1.21236e-11, -1.19132e-12, 3.00075e-12, -1.19132e-12, -3.35485e-12
5, 7, 24.824, 13.45, 8.39543e-13, 2.78338e-12, 8.39543e-13, -1.47037e-11, -1.16863e-12, 2.78338e-12, -1.16863e-12, -5.92757e-12
5, 8, 24.856, 6.26768, 9.70207e-13, 2.94145e-12, 9.70207e-13, -1.54153e-11, -1.26179e-12, 2.94145e-12, -1.26179e-12, -6.4484e-12
5, 9, 24.888, -0.914789, 9.05193e-13, 2.86005e-12, 9.05193e-13, -1.49912e-11, -1.22113e-12, 2.86005e-12, -1.22113e-12, -6.17102e-12
5, 10, 24.92, -8.09742, 7.84887e-13, 2.86986e-12, 7.84887e-13, -1.55526e-11, -1.24833e-12, 2.86986e-12, -1.24833e-12, -6.64446e-12
5, 11, 24.952, -15.2802, 1.57396e-12, 2.73172e-12, 1.57396e-12, -1.44464e-11, -1.02972e-12, 2.73172e-12, -1.02972e-12, -6.56547e-12
5, 12, 24.984, -22.4631, 8.62065e-13, 2.94178e-12, 8.62065e-13, -1.62034e-11, -1.13462e-12, 2.94178e-12, -1.13462e-12, -7.45669e-12
5, 13, 25.016, -29.6462, 9.36262e-13, 2.87345e-12, 9.36262e-13, -1.66223e-11, -1.00795e-12, 2.87345e-12, -1.00795e-12, -7.25916e-12
5, 14, 25.048, -36.8284, 8.8354e-13, 2.87914e-12, 8.8354e-13, -2.045e-11, -1.14356e-12, 2.87914e-12, -1.14356e-12, -1.15125e-11
5, 15, 25.08, -44.0029, 9.15772e-13, 2.98145e-12, 9.15772e-13, -7.4657e-11, -1.20532e-12, 2.98145e-12, -1.20532e-12, -6.56901e-11
5, 16, 25.112, -51.1336, 9.9014e-13, 2.91644e-12, 9.9014e-13, -3.22238e-10, -1.13061e-12, 2.91644e-12, -1.13061e-12, -3.13785e-10
5, 17, 25.144, -58.08, 9.45407e-13, 2.95957e-12, 9.45407e-13, -1.41098e-09, -1.13143e-12, 2.95957e-12, -1.13143e-12, -1.40167e-09
5, 18, 25.176, -64.4155, 8.95047e-13, 2.79471e-12, 8.95047e-13, -4.99635e-09, -1.34412e-12, 2.79471e-12, -1.34412e-12, -4.98521e-09
5, 19, 25.208, -69.2108, 2.7828e-13, 2.16369e-12, 2.7828e-13, -1.40459e-08, -1.68081e-12, 2.16369e-12, -1.68081e-12, -1.40319e-08
5, 20, 25.24, -71.4975, 2.64152e-13, 1.10971e-12, 2.64152e-13, -2.87743e-08, -3.88721e-12, 1.10971e-12, -3.88721e-12, -2.87585e-08
5, 21, 25.272, -71.9038, -6.6571e-13, -8.43898e-14, -6.6571e-13, -3.98247e-08, -4.22623e-12, -8.43898e-14, -4.22623e-12, -3.98065e-08
5, 22, 25.304, -71.9159, -1.70379e-12, -1.33143e-12, -1.70379e-12, -4.21526e-08, -3.96965e-12, -1.33143e-12, -3.96965e-12, -4.21358e-08
5, 23, 25.336, -71.9171, -1.87651e-12, -1.99301e-12, -1.87651e-12, -4.22192e-08, -3.63231e-12, -1.99301e-12, -3.63231e-12, -4.22032e-08
5, 24, 25.368, -71.9182, -2.33521e-12, -2.24897e-12, -2.33521e-12, -4.22208e-08, -3.76923e-12, -2.24897e-12, -3.76923e-12, -4.22036e-08
5, 25, 25.4, -71.9194, -2.16829e-12, -2.73909e-12, -2.16829e-12, -4.22093e-08, -3.59763e-12, -2.73909e-12, -3.59763e-12, -4.2194e-08
5, 26, 25.432, -71.9205, -2.66232e-12, -2.64131e-12, -2.66232e-12, -4.2228e-08, -3.75255e-12, -2.64131e-12, -3.75255e-12, -4.22114e-08
5, 27, 25.464, -71.9217, -3.28532e-12, -2.85704e-12, -3.28532e-12, -4.22477e-08, -3.57728e-12, -2.85704e-12, -3.57728e-12, -4.22303e-08
5, 28, 25.496, -71.9228, -2.98014e-12, -2.87404e-12, -2.98014e-12, -4.22501e-08, -3.2324e-12, -2.87404e-12, -3.2324e-12, -4.22332e-08
5, 29, 25.528, -71.924, -2.83747e-12, -3.0737e-12, -2.83747e-12, -4.22495e-08, -3.49203e-12, -3.0737e-12, -3.49203e-12, -4.22352e-08
5, 30, 25.56, -71.9251, -3.11022e-12, -2.72682e-12, -3.11022e-12, -4.22617e-08, -3.61199e-12, -2.72682e-12, -3.61199e-12, -4.22444e-08
5, 31, 25.592, -71.9263, -3.31378e-12, -2.81207e-12, -3.31378e-12, -4.2256e-08, -3.17171e-12, -2.81207e-12, -3.17171e-12, -4.22387e-08
5, 32, 25.624, -71.9274, -3.09081e-12, -2.66332e-12, -3.09081e-12, -4.22699e-08, -3.14779e-12, -2.66332e-12, -3.14779e-12, -4.22529e-08
5, 33, 25.656, -71.9286, -3.23731e-12, -2.74631e-12, -3.23731e-12, -4.22712e-08, -3.17905e-12, -2.74631e-12, -3.17905e-12, -4.2254e-08
5, 34, 25.688, -71.9297, -3.08546e-12, -2.67763e-12, -3.08546e-12, -4.22859e-08, -2.92275e-12, -2.67763e-12, -2.92275e-12, -4.22685e-08
5, 35, 25.72, -71.9309, -3.30815e-12, -2.77475e-12, -3.30815e-12, -4.22872e-08, -3.10002e-12, -2.77475e-12, -3.10002e-12, -4.22705e-08
5, 36, 25.752, -71.932, -3.40428e-12, -2.53121e-12, -3.40428e-12, -4.22928e-08, -3.13468e-12, -2.53121e-12, -3.13468e-12, -4.22759e-08
5, 37, 25.784, -71.9332, -3.14521e-12, -2.59146e-12, -3.14521e-12, -4.23143e-08, -2.75508e-12, -2.59146e-12, -2.75508e-12, -4.22969e-08
5, 38, 25.816, -71.9343, -3.46189e-12, -2.38889e-12, -3.46189e-12, -4.2313e-08, -2.77604e-12, -2.38889e-12, -2.77604e-12, -4.2296e-08
5, 39, 25.848, -71.9355, -3.2992e-12, -2.11373e-12, -3.2992e-12, -4.23218e-08, -2.77269e-12, -2.11373e-12, -2.77269e-12, -4.23051e-08
5, 40, 25.88, -71.9367, -3.44079e-12, -2.22464e-12, -3.44079e-12, -4.2322e-08, -2.5659e-12, -2.22464e-12, -2.5659e-12, -4.23056e-08
5, 41, 25.912, -71.9378, -3.50902e-12, -2.04282e-12, -3.50902e-12, -4.23369e-08, -2.56231e-12, -2.04282e-12, -2.56231e-12, -4.2322e-08
5, 42, 25.944, -71.939, -3.43378e-12, -2.02282e-12, -3.43378e-12, -4.23433e-08, -2.65658e-12, -2.02282e-12, -2.65658e-12, -4.23288e-08
5, 43, 25.976, -71.9401, -3.38392e-12, -2.05539e-12, -3.38392e-12, -4.23489e-08, -2.74104e-12, -2.05539e-12, -2.74104e-12, -4.23339e-08
5, 44, 26.008, -71.9413, -3.00666e-12, -2.04335e-12, -3.00666e-12, -4.23565e-08, -2.7703e-12, -2.04335e-12, -2.7703e-12, -4.23404e-08
5, 45, 26.04, -71.9424, -3.29794e-12, -2.18497e-12, -3.29794e-12, -4.2351e-08, -2.72612e-12, -2.18497e-12, -2.72612e-12, -4.23368e-08
5, 46, 26.072, -71.9436, -3.30915e-12, -2.05568e-12, -3.30915e-12, -4.23612e-08, -2.98271e-12, -2.05568e-12, -2.98271e-12, -4.23448e-08
5, 47, 26.104, -71.9447, -3.31094e-12, -1.95475e-12, -3.31094e-12, -4.23726e-08, -2.75566e-12, -1.95475e-12, -2.75566e-12, -4.23561e-08
5, 48, 26.136, -71.9459, -3.49591e-12, -1.91051e-12, -3.49591e-12, -4.23757e-08, -2.6577e-12, -1.91051e-12, -2.6577e-12, -4.23588e-08
5, 49, 26.168, -71.947, -3.37239e-12, -1.61913e-12, -3.37239e-12, -4.23845e-08, -2.74677e-12, -1.61913e-12, -2.74677e-12, -4.23683e-08
5, 50, 26.2, -71.9482, -3.47278e-12, -1.72065e-12, -3.47278e-12, -4.2391e-08, -2.60877e-12, -1.72065e-12, -2.60877e-12, -4.23747e-08
6, 1, 26.2128, -61.8401, -6.29559e-13, -2.69523e-12, -6.29559e-13, -1.69662e-08, 4.31091e-13, -2.69523e-12, 4.31091e-13, -1.69705e-08
6, 2, 26.2256, -53.9844, -8.87008e-13, -2.46085e-12, -8.87008e-13, -3.73034e-09, 8.79754e-13, -2.46085e-12, 8.79754e-13, -3.73728e-09
6, 3, 26.2384, -46.6009, -7.08993e-13, -2.41614e-12, -7.08993e-13, -9.66264e-10, 1.01419e-12, -2.41614e-12, 1.01419e-12, -9.74204e-10
6, 4, 26.2512, -39.3434, -7.66123e-13, -2.26475e-12, -7.66123e-13, -2.23161e-10, 9.01317e-13, -2.26475e-12, 9.01317e-13, -2.31306e-10
6, 5, 26.264, -32.1166, -5.50887e-13, -2.29355e-12, -5.50887e-13, -4.36707e-11, 1.19107e-12, -2.29355e-12, 1.19107e-12, -5.117e-11
6, 6, 26.2768, -24.8961, -5.15506e-13, -2.38491e-12, -5.15506e-13, -9.13931e-12, 9.14018e-13, -2.38491e-12, 9.14018e-13, -1.76072e-11
6, 7, 26.2896, -17.6765, -5.71394e-13, -2.19945e-12, -5.71394e-13, -4.32411e-12, 9.5305e-13, -2.19945e-12, 9.5305e-13, -1.28801e-11
6, 8, 26.3024, -10.4572, -8.59011e-13, -2.54489e-12, -8.59011e-13, -6.93158e-12, 9.88642e-13, -2.54489e-12, 9.88642e-13, -1.53114e-11
6, 9, 26.3152, -3.23799, -1.24651e-12, -2.54806e-12, -1.24651e-12, -3.68308e-12, 9.70447e-13, -2.54806e-12, 9.70447e-13, -1.21216e-11
6, 10, 26.328, 3.98103, -1.20712e-12, -2.33738e-12, -1.20712e-12, -3.978e-12, 1.04091e-12, -2.33738e-12, 1.04091e-12, -1.25927e-11
6, 11, 26.3408, 11.1999, -1.05398e-12, -2.46098e-12, -1.05398e-12, -5.44982e-12, 9.39165e-13, -2.46098e-12, 9.39165e-13, -1.39985e-11
6, 12, 26.3536, 18.4186, -1.18241e-12, -2.3458e-12, -1.18241e-12, -4.1339e-12, 9.83615e-13, -2.3458e-12, 9.83615e-13, -1.21175e-11
6, 13, 26.3664, 25.6371, -1.03349e-12, -2.37116e-12, -1.03349e-12, -4.16202e-12, 8.88102e-13, -2.37116e-12, 8.88102e-13, -1.21383e-11
6, 14, 26.3792, 32.8554, -8.89094e-13, -2.51749e-12, -8.89094e-13, -6.54367e-12, 1.17521e-12, -2.51749e-12, 1.17521e-12, -1.48355e-11
6, 15, 26.392, 40.0725, -7.06683e-13, -2.43831e-12, -7.06683e-13, 4.09021e-12, 8.58964e-13, -2.43831e-12, 8.58964e-13, -4.13555e-12
6, 16, 26.4048, 47.2823, -6.82629e-13, -2.40951e-12, -6.82629e-13, 4.33525e-11, 7.75568e-13, -2.40951e-12, 7.75568e-13, 3.58532e-11
6, 17, 26.4176, 54.4567, -8.61192e-13, -2.40589e-12, -8.61192e-13, 2.48089e-10, 1.02469e-12, -2.40589e-12, 1.02469e-12, 2.39533e-10
6, 18, 26.4304, 61.4958, -7.20686e-13, -2.09663e-12, -7.20686e-13, 1.04635e-09, 1.1858e-12, -2.09663e-12, 1.1858e-12, 1.03651e-09
6, 19, 26.4432, 68.1109, -5.11996e-14, -2.18149e-12, -5.11996e-14, 3.54345e-09, 1.40227e-12, -2.18149e-12, 1.40227e-12, 3.53338e-09
6, 20, 26.456, 73.6544, 3.67027e-13, -1.92551e-12, 3.67027e-13, 9.82914e-09, 1.72999e-12, -1.92551e-12, 1.72999e-12, 9.81793e-09
6, 21, 26.4688, 77.2107, 1.05634e-13, -1.02217e-12, 1.05634e-13, 2.14913e-08, 3.73966e-12, -1.02217e-12, 3.73966e-12, 2.14767e-08
6, 22, 26.4816, 78.5608, 1.03264e-12, -6.49867e-14, 1.03264e-12, 3.44633e-08, 4.21726e-12, -6.49867e-14, 4.21726e-12, 3.44458e-08
6, 23, 26.4944, 78.7996, 2.02744e-12, 1.00785e-12, 2.02744e-12, 4.10045e-08, 4.1412e-12, 1.00785e-12, 4.1412e-12, 4.09877e-08
6, 24, 26.5072, 78.8223, 2.71884e-12, 1.6337e-12, 2.71884e-12, 4.22564e-08, 3.89915e-12, 1.6337e-12, 3.89915e-12, 4.22406e-08
6, 25, 26.52, 78.8231, 2.64222e-12, 2.13054e-12, 2.64222e-12, 4.23791e-08, 4.26247e-12, 2.13054e-12, 4.26247e-12, 4.23633e-08
6, 26, 26.5328, 78.822, 3.09512e-12, 2.39019e-12, 3.09512e-12, 4.2401e-08, 4.01297e-12, 2.39019e-12, 4.01297e-12, 4.23841e-08
6, 27, 26.5456, 78.8207, 3.00198e-12, 2.61901e-12, 3.00198e-12, 4.23864e-08, 3.60493e-12, 2.61901e-12, 3.60493e-12, 4.2371e-08
6, 28, 26.5584, 78.8195, 3.25987e-12, 2.94093e-12, 3.25987e-12, 4.23771e-08, 3.78126e-12, 2.94093e-12, 3.78126e-12, 4.23603e-08
6, 29, 26.5712, 78.8182, 3.37038e-12, 3.05872e-12, 3.37038e-12, 4.23772e-08, 3.66409e-12, 3.05872e-12, 3.66409e-12, 4.236e-08
6, 30, 26.584, 78.817, 3.32913e-12, 2.97053e-12, 3.32913e-12, 4.23586e-08, 3.57385e-12, 2.97053e-12, 3.57385e-12, 4.23424e-08
6, 31, 26.5968, 78.8157, 3.74583e-12, 3.00541e-12, 3.74583e-12, 4.23599e-08, 3.31068e-12, 3.00541e-12, 3.31068e-12, 4.2342e-08
6, 32, 26.6096, 78.8144, 3.59008e-12, 3.25508e-12, 3.59008e-12, 4.23442e-08, 3.44802e-12, 3.25508e-12, 3.44802e-12, 4.23271e-08
6, 33, 26.6224, 78.8132, 3.50794e-12, 3.1005e-12, 3.50794e-12, 4.23427e-08, 3.24535e-12, 3.1005e-12, 3.24535e-12, 4.23263e-08
6, 34, 26.6352, 78.8119, 3.4188e-12, 2.94018e-12, 3.4188e-12, 4.23447e-08, 3.22034e-12, 2.94018e-12, 3.22034e-12, 4.23285e-08
6, 35, 26.648, 78.8107, 3.53011e-12, 2.94938e-12, 3.53011e-12, 4.23325e-08, 3.17598e-12, 2.94938e-12, 3.17598e-12, 4.23156e-08
6, 36, 26.6608, 78.8094, 3.61435e-12, 3.14611e-12, 3.61435e-12, 4.23166e-08, 3.1841e-12, 3.14611e-12, 3.1841e-12, 4.23001e-08
6, 37, 26.6736, 78.8081, 3.37828e-12, 2.96492e-12, 3.37828e-12, 4.23116e-08, 3.01682e-12, 2.96492e-12, 3.01682e-12, 4.22953e-08
6, 38, 26.6864, 78.8069, 3.71863e-12, 2.8435e-12, 3.71863e-12, 4.23092e-08, 3.1265e-12, 2.8435e-12, 3.1265e-12, 4.2292e-08
6, 39, 26.6992, 78.8056, 3.69657e-12, 2.72855e-12, 3.69657e-12, 4.22942e-08, 2.94037e-12, 2.72855e-12, 2.94037e-12, 4.2278e-08
6, 40, 26.712, 78.8044, 3.71213e-12, 2.72439e-12, 3.71213e-12, 4.23058e-08, 3.08928e-12, 2.72439e-12, 3.08928e-12, 4.22887e-08
6, 41, 26.7248, 78.8031, 3.58891e-12, 2.55819e-12, 3.58891e-12, 4.22931e-08, 2.79627e-12, 2.55819e-12, 2.79627e-12, 4.22767e-08
6, 42, 26.7376, 78.8019, 3.89609e-12, 2.66043e-12, 3.89609e-12, 4.22792e-08, 3.05331e-12, 2.66043e-12, 3.05331e-12, 4.22626e-08
6, 43, 26.7504, 78.8006, 3.60126e-12, 2.58315e-12, 3.60126e-12, 4.22734e-08, 2.97774e-12, 2.58315e-12, 2.97774e-12, 4.22562e-08
6, 44, 26.7632, 78.7993, 3.98952e-12, 2.47846e-12, 3.98952e-12, 4.22794e-08, 3.07656e-12, 2.47846e-12, 3.07656e-12, 4.22617e-08
6, 45, 26.776, 78.7981, 3.62431e-12, 2.40751e-12, 3.62431e-12, 4.22504e-08, 2.76844e-12, 2.40751e-12, 2.76844e-12, 4.22338e-08
6, 46, 26.7888, 78.7968, 4.04675e-12, 2.49192e-12, 4.04675e-12, 4.22422e-08, 2.96699e-12, 2.49192e-12, 2.96699e-12, 4.22254e-08
6, 47, 26.8016, 78.7956, 3.34223e-12, 2.07715e-12, 3.34223e-12, 4.22513e-08, 2.74236e-12, 2.07715e-12, 2.74236e-12, 4.22351e-08
6, 48, 26.8144, 78.7943, 3.53999e-12, 2.12777e-12, 3.53999e-12, 4.22332e-08, 2.7193e-12, 2.12777e-12, 2.7193e-12, 4.22171e-08
6, 49, 26.8272, 78.7931, 3.79174e-12, 1.92091e-12, 3.79174e-12, 4.22391e-08, 3.00252e-12, 1.92091e-12, 3.00252e-12, 4.22219e-08
6, 50, 26.84, 78.7918, 3.70543e-12, 2.2926e-12, 3.70543e-12, 4.22276e-08, 2.92952e-12, 2.2926e-12, 2.92952e-12, 4.22109e-08
7, 1, 26.8528, 64.4261, 1.58151e-12, 3.327e-12, 1.58151e-12, 4.21937e-08, -8.96215e-13, 3.327e-12, -8.96215e-13, 4.21932e-08
7, 2, 26.8656, 56.2842, 7.78789e-13, 3.01554e-12, 7.78789e-13, 5.63274e-09, -9.7896e-13, 3.01554e-12, -9.7896e-13, 5.64106e-09
7, 3, 26.8784, 48.8532, 1.61015e-13, 2.78588e-12, 1.61015e-13, 1.44644e-09, -9.56157e-13, 2.78588e-12, -9.56157e-13, 1.45502e-09
7, 4, 26.8912, 41.6104, 3.64497e-13, 2.79208e-12, 3.64497e-13, 3.28911e-10, -1.03354e-12, 2.79208e-12, -1.03354e-12, 3.38172e-10
7, 5, 26.904, 34.4155, 4.80531e-13, 2.87024e-12, 4.80531e-13, 5.58967e-11, -1.20358e-12, 2.87024e-12, -1.20358e-12, 6.47609e-11
7, 6, 26.9168, 27.2307, 5.65155e-13, 2.87399e-12, 5.65155e-13, -2.70922e-12, -1.01447e-12, 2.87399e-12, -1.01447e-12, 6.05221e-12
7, 7, 26.9296, 20.0475, 1.03472e-13, 2.77886e-12, 1.03472e-13, -1.4251e-11, -1.26399e-12, 2.77886e-12, -1.26399e-12, -5.44552e-12
7, 8, 26.9424, 12.8643, 7.94864e-13, 2.78458e-12, 7.94864e-13, -1.56974e-11, -1.05137e-12, 2.78458e-12, -1.05137e-12, -6.84796e-12
7, 9, 26.9552, 5.68089, 7.74415e-13, 2.59605e-12, 7.74415e-13, -1.54277e-11, -9.47193e-13, 2.59605e-12, -9.47193e-13, -7.23128e-12
7, 10, 26.968, -1.50265, 5.85914e-13, 2.80799e-12, 5.85914e-13, -1.49956e-11, -1.08639e-12, 2.80799e-12, -1.08639e-12, -5.98471e-12
7, 11, 26.9808, -8.68634, 6.87962e-13, 2.78319e-12, 6.87962e-13, -1.45612e-11, -1.11979e-12, 2.78319e-12, -1.11979e-12, -6.04922e-12
7, 12, 26.9936, -15.8702, 2.57882e-13, 2.82519e-12, 2.57882e-13, -1.50128e-11, -1.12095e-12, 2.82519e-12, -1.12095e-12, -6.06063e-12
7, 13, 27.0064, -23.0542, 4.36659e-13, 2.80852e-12, 4.36659e-13, -1.03256e-11, -1.23296e-12, 2.80852e-12, -1.23296e-12, -3.07582e-12
7, 14, 27.0192, -30.2383, 3.61414e-13, 2.83161e-12, 3.61414e-13, -1.58369e-11, -1.16298e-12, 2.83161e-12, -1.16298e-12, -6.66451e-12
7, 15, 27.032, -37.4222, 7.92387e-13, 2.68773e-12, 7.92387e-13, -1.80303e-11, -1.05419e-12, 2.68773e-12, -1.05419e-12, -9.63576e-12
7, 16, 27.0448, -44.6025, 8.11583e-13, 2.6708e-12, 8.11583e-13, -3.86947e-11, -9.97236e-13, 2.6708e-12, -9.97236e-13, -2.93316e-11
7, 17, 27.0576, -51.7629, 1.89039e-13, 2.71053e-12, 1.89039e-13, -1.62283e-10, -1.25281e-12, 2.71053e-12, -1.25281e-12, -1.53947e-10
7, 18, 27.0704, -58.8404, 3.88419e-13, 2.64233e-12, 3.88419e-13, -6.44394e-10, -1.52282e-12, 2.64233e-12, -1.52282e-12, -6.35075e-10
7, 19, 27.0832, -65.6389, 2.08794e-13, 2.77158e-12, 2.08794e-13, -2.29088e-09, -1.2716e-12, 2.77158e-12, -1.2716e-12, -2.28093e-09
7, 20, 27.096, -71.6708, 3.03407e-14, 2.4895e-12, 3.03407e-14, -6.79237e-09, -1.56056e-12, 2.4895e-12, -1.56056e-12, -6.78055e-09
7, 21, 27.1088, -76.0784, -5.58665e-13, 1.83028e-12, -5.58665e-13, -1.63221e-08, -1.84586e-12, 1.83028e-12, -1.84586e-12, -1.63081e-08
7, 22, 27.1216, -78.2191, -4.20814e-13, 1.02705e-12, -4.20814e-13, -2.96451e-08, -4.03579e-12, 1.02705e-12, -4.03579e-12, -2.96277e-08
7, 23, 27.1344, -78.7471, -1.29604e-12, -2.41131e-13, -1.29604e-12, -3.91199e-08, -4.04641e-12, -2.41131e-13, -4.04641e-12, -3.91015e-08
7, 24, 27.1472, -78.8127, -2.18694e-12, -1.02948e-12, -2.18694e-12, -4.18274e-08, -4.02698e-12, -1.02948e-12, -4.02698e-12, -4.18102e-08
7, 25, 27.16, -78.8199, -2.62678e-12, -1.78976e-12, -2.62678e-12, -4.218e-08, -4.15579e-12, -1.78976e-12, -4.15579e-12, -4.21629e-08
7, 26, 27.1728, -78.8217, -2.83031e-12, -2.24692e-12, -2.83031e-12, -4.22229e-08, -3.76208e-12, -2.24692e-12, -3.76208e-12, -4.22063e-08
7, 27, 27.1856, -78.823, -3.08066e-12, -2.68609e-12, -3.08066e-12, -4.22181e-08, -3.78391e-12, -2.68609e-12, -3.78391e-12, -4.22009e-08
7, 28, 27.1984, -78.8243, -3.16537e-12, -2.7673e-12, -3.16537e-12, -4.22343e-08, -3.93185e-12, -2.7673e-12, -3.93185e-12, -4.2217e-08
7, 29, 27.2112, -78.8255, -3.22013e-12, -2.77684e-12, -3.22013e-12, -4.22459e-08, -3.44368e-12, -2.77684e-12, -3.44368e-12, -4.22296e-08
7, 30, 27.224, -78.8268, -3.38519e-12, -2.76428e-12, -3.38519e-12, -4.22414e-08, -3.52357e-12, -2.76428e-12, -3.52357e-12, -4.22259e-08
7, 31, 27.2368, -78.8281, -3.6301e-12, -2.59827e-12, -3.6301e-12, -4.2251e-08, -3.53319e-12, -2.59827e-12, -3.53319e-12, -4.2234e-08
7, 32, 27.2496, -78.8293, -3.21381e-12, -2.67279e-12, -3.21381e-12, -4.22598e-08, -3.40741e-12, -2.67279e-12, -3.40741e-12, -4.22422e-08
7, 33, 27.2624, -78.8306, -3.35942e-12, -2.54024e-12, -3.35942e-12, -4.2287e-08, -3.25781e-12, -2.54024e-12, -3.25781e-12, -4.22698e-08
7, 34, 27.2752, -78.8319, -3.15411e-12, -2.68514e-12, -3.15411e-12, -4.22744e-08, -3.1598e-12, -2.68514e-12, -3.1598e-12, -4.22572e-08
7, 35, 27.288, -78.8331, -3.04073e-12, -2.6441e-12, -3.04073e-12, -4.22968e-08, -3.13492e-12, -2.6441e-12, -3.13492e-12, -4.22795e-08
7, 36, 27.3008, -78.8344, -3.25455e-12, -2.51658e-12, -3.25455e-12, -4.22895e-08, -3.08041e-12, -2.51658e-12, -3.08041e-12, -4.22722e-08
7, 37, 27.3136, -78.8357, -3.37337e-12, -2.54585e-12, -3.37337e-12, -4.23057e-08, -3.12643e-12, -2.54585e-12, -3.12643e-12, -4.22889e-08
7, 38, 27.3264, -78.8369, -3.29894e-12, -2.60199e-12, -3.29894e-12, -4.23117e-08, -2.97019e-12, -2.60199e-12, -2.97019e-12, -4.22949e-08
7, 39, 27.3392, -78.8382, -3.35051e-12, -2.6445e-12, -3.35051e-12, -4.23152e-08, -3.06311e-12, -2.6445e-12, -3.06311e-12, -4.22985e-08
7, 40, 27.352, -78.8394, -3.22038e-12, -2.63231e-12, -3.22038e-12, -4.23149e-08, -3.30911e-12, -2.63231e-12, -3.30911e-12, -4.2298e-08
7, 41, 27.3648, -78.8407, -2.99288e-12, -2.51336e-12, -2.99288e-12, -4.23274e-08, -3.04352e-12, -2.51336e-12, -3.04352e-12, -4.23107e-08
7, 42, 27.3776, -78.842, -3.1984e-12, -2.52639e-12, -3.1984e-12, -4.23236e-08, -2.84964e-12, -2.52639e-12, -2.84964e-12, -4.23072e-08
7, 43, 27.3904, -78.8432, -3.45065e-12, -2.50398e-12, -3.45065e-12, -4.2337e-08, -2.75593e-12, -2.50398e-12, -2.75593e-12, -4.23204e-08
7, 44, 27.4032, -78.8445, -3.46286e-12, -2.4174e-12, -3.46286e-12, -4.23487e-08, -2.73028e-12, -2.4174e-12, -2.73028e-12, -4.2332e-08
7, 45, 27.416, -78.8458, -3.5634e-12, -2.28197e-12, -3.5634e-12, -4.23585e-08, -3.06324e-12, -2.28197e-12, -3.06324e-12, -4.23418e-08
7, 46, 27.4288, -78.847, -3.58068e-12, -2.11959e-12, -3.58068e-12, -4.23646e-08, -2.88045e-12, -2.11959e-12, -2.88045e-12, -4.23478e-08
7, 47, 27.4416, -78.8483, -4.08637e-12, -1.81269e-12, -4.08637e-12, -4.23716e-08, -2.4727e-12, -1.81269e-12, -2.4727e-12, -4.23535e-08
7, 48, 27.4544, -78.8496, -3.40098e-12, -2.25502e-12, -3.40098e-12, -4.23712e-08, -2.53873e-12, -2.25502e-12, -2.53873e-12, -4.23548e-08
7, 49, 27.4672, -78.8508, -3.39009e-12, -1.84187e-12, -3.39009e-12, -4.23813e-08, -2.76964e-12, -1.84187e-12, -2.76964e-12, -4.23649e-08
7, 50, 27.48, -78.8521, -3.05336e-12, -1.9404e-12, -3.05336e-12, -4.23798e-08, -3.24381e-12, -1.9404e-12, -3.24381e-12, -4.23625e-08
8, 1, 27.4851, -68.7454, -3.2808e-14, -2.89007e-12, -3.2808e-14, -1.69652e-08, 3.4003e-13, -2.89007e-12, 3.4003e-13, -1.69699e-08
8, 2, 27.4902, -60.7935, -3.09336e-13, -2.55273e-12, -3.09336e-13, -4.31465e-09, 5.63595e-13, -2.55273e-12, 5.63595e-13, -4.32093e-09
8, 3, 27.4954, -53.36, -4.46301e-13, -2.71465e-12, -4.46301e-13, -1.25576e-09, 6.82891e-13, -2.71465e-12, 6.82891e-13, -1.26418e-09
8, 4, 27.5005, -46.0828, -4.04698e-13, -2.42774e-12, -4.04698e-13, -3.48046e-10, 8.09431e-13, -2.42774e-12, 8.09431e-13, -3.56719e-10
8, 5, 27.5056, -38.8505, -2.93186e-13, -2.5513e-12, -2.93186e-13, -8.26467e-11, 8.71443e-13, -2.5513e-12, 8.71443e-13, -9.09239e-11
8, 6, 27.5107, -31.6293, -4.27663e-13, -2.50671e-12, -4.27663e-13, -1.76176e-11, 9.00506e-13, -2.50671e-12, 9.00506e-13, -2.61296e-11
8, 7, 27.5158, -24.4104, -3.46343e-13, -2.4893e-12, -3.46343e-13, -5.86393e-12, 8.09542e-13, -2.4893e-12, 8.09542e-13, -1.39062e-11
8, 8, 27.521, -17.192, 9.0172e-14, -2.41418e-12, 9.0172e-14, -4.30893e-12, 6.26654e-13, -2.41418e-12, 6.26654e-13, -1.26448e-11
8, 9, 27.5261, -9.97377, -5.59673e-13, -2.72245e-12, -5.59673e-13, -4.56779e-12, 9.0956e-13, -2.72245e-12, 9.0956e-13, -1.26982e-11
8, 10, 27.5312, -2.75568, -2.3548e-13, -2.69452e-12, -2.3548e-13, -4.49106e-12, 7.11165e-13, -2.69452e-12, 7.11165e-13, -1.24306e-11
8, 11, 27.5363, 4.46225, -2.27368e-13, -2.6318e-12, -2.27368e-13, -3.94452e-12, 5.16999e-13, -2.6318e-12, 5.16999e-13, -1.16786e-11
8, 12, 27.5414, 11.68, -1.50445e-13, -2.58237e-12, -1.50445e-13, -3.55474e-12, 6.26356e-13, -2.58237e-12, 6.26356e-13, -1.21841e-11
8, 13, 27.5466, 18.8976, -4.85842e-13, -2.6925e-12, -4.85842e-13, -4.23727e-12, 8.36487e-13, -2.6925e-12, 8.36487e-13, -1.24263e-11
8, 14, 27.5517, 26.1151, -2.7244e-13, -2.46699e-12, -2.7244e-13, -3.75681e-12, 7.04991e-13, -2.46699e-12, 7.04991e-13, -1.22174e-11
8, 15, 27.5568, 33.3323, -5.3005e-13, -2.42487e-12, -5.3005e-13, -3.66285e-12, 8.4218e-13, -2.42487e-12, 8.4218e-13, -1.31066e-11
8, 16, 27.5619, 40.5489, -4.00399e-13, -2.38461e-12, -4.00399e-13, -9.93476e-13, 8.02719e-13, -2.38461e-12, 8.02719e-13, -8.71293e-12
8, 17, 27.567, 47.7622, -4.88754e-13, -2.44784e-12, -4.88754e-13, 1.73996e-11, 9.95591e-13, -2.44784e-12, 9.95591e-13, 9.47466e-12
8, 18, 27.5722, 54.9598, -4.08287e-13, -2.50724e-12, -4.08287e-13, 1.08613e-10, 9.27244e-13, -2.50724e-12, 9.27244e-13, 1.00512e-10
8, 19, 27.5773, 62.0981, -4.21728e-13, -2.24533e-12, -4.21728e-13, 4.61419e-10, 1.06126e-12, -2.24533e-12, 1.06126e-12, 4.5323e-10
8, 20, 27.5824, 69.0489, -4.84378e-13, -2.33933e-12, -4.84378e-13, 1.55886e-09, 7.43029e-13, -2.33933e-12, 7.43029e-13, 1.55008e-09
8, 21, 27.5875, 75.4976, 2.67283e-14, -2.73172e-12, 2.67283e-14, 4.50381e-09, 1.05408e-12, -2.73172e-12, 1.05408e-12, 4.49404e-09
8, 22, 27.5926, 80.8386, 5.51455e-14, -2.18098e-12, 5.51455e-14, 1.10061e-08, 1.62904e-12, -2.18098e-12, 1.62904e-12, 1.09942e-08
8, 23, 27.5978, 84.34, 8.48622e-14, -1.45658e-12, 8.48622e-14, 2.18207e-08, 3.47255e-12, -1.45658e-12, 3.47255e-12, 2.18056e-08
8, 24, 27.6029, 85.879, 5.87079e-13, -4.10261e-13, 5.87079e-13, 3.33416e-08, 3.57199e-12, -4.10261e-13, 3.57199e-12, 3.33256e-08
8, 25, 27.608, 86.292, 1.37329e-12, 6.50588e-13, 1.37329e-12, 3.99669e-08, 3.74059e-12, 6.50588e-13, 3.74059e-12, 3.99492e-08
8, 26, 27.6131, 86.3697, 2.20857e-12, 1.42581e-12, 2.20857e-12, 4.19261e-08, 3.87125e-12, 1.42581e-12, 3.87125e-12, 4.19108e-08
8, 27, 27.6182, 86.3817, 2.3651e-12, 1.9852e-12, 2.3651e-12, 4.23135e-08, 3.86067e-12, 1.9852e-12, 3.86067e-12, 4.22971e-08
8, 28, 27.6234, 86.3826, 3.16802e-12, 2.27229e-12, 3.16802e-12, 4.23627e-08, 3.94114e-12, 2.27229e-12, 3.94114e-12, 4.23452e-08
8, 29, 27.6285, 86.3815, 3.31672e-12, 2.68383e-12, 3.31672e-12, 4.23792e-08, 3.76649e-12, 2.68383e-12, 3.76649e-12, 4.23631e-08
8, 30, 27.6336, 86.3802, 3.32301e-12, 2.7991e-12, 3.32301e-12, 4.23646e-08, 3.75577e-12, 2.7991e-12, 3.75577e-12, 4.23486e-08
8, 31, 27.6387, 86.3789, 3.50811e-12, 2.96278e-12, 3.50811e-12, 4.23649e-08, 3.58558e-12, 2.96278e-12, 3.58558e-12, 4.23489e-08
8, 32, 27.6438, 86.3775, 3.89977e-12, 2.87645e-12, 3.89977e-12, 4.23508e-08, 3.59616e-12, 2.87645e-12, 3.59616e-12, 4.2333e-08
8, 33, 27.649, 86.3761, 3.79979e-12, 3.23566e-12, 3.79979e-12, 4.23456e-08, 3.53349e-12, 3.23566e-12, 3.53349e-12, 4.23293e-08
8, 34, 27.6541, 86.3747, 3.62213e-12, 2.91202e-12, 3.62213e-12, 4.23481e-08, 3.39282e-12, 2.91202e-12, 3.39282e-12, 4.23319e-08
8, 35, 27.6592, 86.3733, 3.79529e-12, 3.075e-12, 3.79529e-12, 4.23431e-08, 3.29952e-12, 3.075e-12, 3.29952e-12, 4.23268e-08
8, 36, 27.6643, 86.372, 3.7852e-12, 2.84213e-12, 3.7852e-12, 4.23311e-08, 3.29779e-12, 2.84213e-12, 3.29779e-12, 4.2314e-08
8, 37, 27.6694, 86.3706, 3.8291e-12, 2.72908e-12, 3.8291e-12, 4.2321e-08, 3.11767e-12, 2.72908e-12, 3.11767e-12, 4.23039e-08
8, 38, 27.6746, 86.3692, 3.78737e-12, 2.79323e-12, 3.78737e-12, 4.23205e-08, 3.18214e-12, 2.79323e-12, 3.18214e-12, 4.23039e-08
8, 39, 27.6797, 86.3678, 3.67805e-12, 2.66523e-12, 3.67805e-12, 4.23144e-08, 2.90219e-12, 2.66523e-12, 2.90219e-12, 4.22975e-08
8, 40, 27.6848, 86.3664, 3.67328e-12, 2.37864e-12, 3.67328e-12, 4.23063e-08, 3.09871e-12, 2.37864e-12, 3.09871e-12, 4.22892e-08
8, 41, 27.6899, 86.3651, 3.80591e-12, 2.61804e-12, 3.80591e-12, 4.22953e-08, 3.00428e-12, 2.61804e-12, 3.00428e-12, 4.22787e-08
8, 42, 27.695, 86.3637, 3.67615e-12, 2.51828e-12, 3.67615e-12, 4.22808e-08, 3.02659e-12, 2.51828e-12, 3.02659e-12, 4.22646e-08
8, 43, 27.7002, 86.3623, 3.71217e-12, 2.56148e-12, 3.71217e-12, 4.22789e-08, 2.87281e-12, 2.56148e-12, 2.87281e-12, 4.22627e-08
8, 44, 27.7053, 86.3609, 3.68488e-12, 2.34318e-12, 3.68488e-12, 4.22888e-08, 3.1868e-12, 2.34318e-12, 3.1868e-12, 4.22716e-08
8, 45, 27.7104, 86.3596, 3.48844e-12, 2.20328e-12, 3.48844e-12, 4.22642e-08, 2.92225e-12, 2.20328e-12, 2.92225e-12, 4.2248e-08
8, 46, 27.7155, 86.3582, 3.14152e-12, 2.08265e-12, 3.14152e-12, 4.2264e-08, 3.05423e-12, 2.08265e-12, 3.05423e-12, 4.22475e-08
8, 47, 27.7206, 86.3568, 3.83917e-12, 2.24218e-12, 3.83917e-12, 4.2254e-08, 2.88145e-12, 2.24218e-12, 2.88145e-12, 4.22371e-08
8, 48, 27.7258, 86.3554, 3.78078e-12, 2.28822e-12, 3.78078e-12, 4.22409e-08, 3.05542e-12, 2.28822e-12, 3.05542e-12, 4.22242e-08
8, 49, 27.7309, 86.354, 3.3564e-12, 2.21004e-12, 3.3564e-12, 4.22361e-08, 2.77363e-12, 2.21004e-12, 2.77363e-12, 4.22194e-08
8, 50, 27.736, 86.3527, 3.76747e-12, 2.19546e-12, 3.76747e-12, 4.22332e-08, 2.85324e-12, 2.19546e-12, 2.85324e-12, 4.22169e-08
8, 51, 27.736, 86.3527, 2.53004e-12, 2.94928e-12, 2.53004e-12, 3.66304e-13, -7.1178e-13, 2.94928e-12, -7.1178e-13, 3.36967e-13
