stage, timestep, time, Stress11, Stress12, Stress13, Stress21, Stress22, Stress23, Stress31, Stress32, Stress33
0, 0, 0, 0, 0, 0, 0, 0, 0, 0, 0, 0
0, 1, 0.1, 3.60051, 3.5847e-18, -9.8522e-18, 3.5847e-18, -3.67608e-08, 1.79139e-18, -9.8522e-18, 1.79139e-18, -3.67608e-08
0, 2, 0.2, 7.20099, -2.14943e-17, -1.43275e-17, -2.14943e-17, -3.67472e-08, -1.43305e-17, -1.43275e-17, -1.43305e-17, -3.67472e-08
0, 3, 0.3, 10.8014, 5.73378e-17, 2.86598e-17, 5.73378e-17, -3.67577e-08, -1.23595e-16, 2.86598e-17, -1.23595e-16, -3.67577e-08
0, 4, 0.4, 14.4018, -5.7317e-17, -1.75584e-16, -5.7317e-17, -3.67426e-08, -1.46875e-16, -1.75584e-16, -1.46875e-16, -3.67426e-08
0, 5, 0.5, 18.0022, -1.14629e-16, -1.78212e-17, -1.14629e-16, -3.67513e-08, -1.003e-16, -1.78212e-17, -1.003e-16, -3.67513e-08
0, 6, 0.6, 21.6025, -1.46955e-16, -4.30479e-17, -1.46955e-16, -3.67244e-08, 1.64981e-22, -4.30479e-17, 1.64981e-22, -3.67244e-08
0, 7, 0.7, 25.2026, 8.60292e-17, -9.3218e-17, 8.60292e-17, -3.67207e-08, 2.07746e-16, -9.3218e-17, 2.07746e-16, -3.67207e-08
0, 8, 0.8, 28.8022, -2.85814e-17, 3.59478e-17, -2.85814e-17, -3.66154e-08, 2.00568e-16, 3.59478e-17, 2.00568e-16, -3.66154e-08
0, 9, 0.9, 32.4, 8.6095e-17, -1.35899e-16, 8.6095e-17, -3.62878e-08, -8.59808e-17, -1.35899e-16, -8.59808e-17, -3.62878e-08
0, 10, 1, 35.9924, -2.29229e-16, -2.82489e-17, -2.29229e-16, -3.52944e-08, 2.79345e-16, -2.82489e-17, 2.79345e-16, -3.52944e-08
0, 11, 1.1, 39.5704, 1.9348e-16, -7.87555e-17, 1.9348e-16, -3.26109e-08, -3.60072e-17, -7.87555e-17, -3.60072e-17, -3.26109e-08
0, 12, 1.2, 43.1132, 3.15354e-16, -1.43057e-16, 3.15354e-16, -2.61231e-08, -3.2243e-16, -1.43057e-16, -3.2243e-16, -2.61231e-08
0, 13, 1.3, 46.5783, 1.70827e-16, 7.67685e-19, 1.70827e-16, -1.17212e-08, -5.5762e-16, 7.67685e-19, -5.5762e-16, -1.17212e-08
0, 14, 1.4, 49.8859, -2.31669e-16, -1.42129e-16, -2.31669e-16, 1.74185e-08, 4.94001e-18, -1.42129e-16, 4.94001e-18, 1.74185e-08
0, 15, 1.5, 52.9051, -7.11824e-17, 2.89001e-16, -7.11824e-17, 7.0664e-08, 3.19972e-16, 2.89001e-16, 3.19972e-16, 7.0664e-08
0, 16, 1.6, 55.4599, -2.27032e-16, -2.46086e-16, -2.27032e-16, 1.56111e-07, -1.45462e-16, -2.46086e-16, -1.45462e-16, 1.56111e-07
0, 17, 1.7, 57.3847, 5.28878e-17, -1.67376e-16, 5.28878e-17, 2.70957e-07, 1.70271e-17, -1.67376e-16, 1.70271e-17, 2.70957e-07
0, 18, 1.8, 58.6283, 6.51333e-17, 2.13844e-16, 6.51333e-17, 3.93118e-07, -6.71234e-16, 2.13844e-16, -6.71234e-16, 3.93118e-07
0, 19, 1.9, 59.3084, 4.5473e-14, 3.02945e-14, 4.5473e-14, 4.90792e-07, -3.04966e-14, 3.02945e-14, -3.04966e-14, 4.90792e-07
0, 20, 2, 59.6313, -1.16953e-16, 2.08761e-16, -1.16953e-16, 5.48259e-07, -3.70831e-16, 2.08761e-16, -3.70831e-16, 5.48259e-07
0, 21, 2.1, 59.7711, -1.23285e-16, 4.53171e-16, -1.23285e-16, 5.72738e-07, 9.28096e-16, 4.53171e-16, 9.28096e-16, 5.72738e-07
0, 22, 2.2, 59.8287, -5.84699e-17, 7.80199e-17, -5.84699e-17, 5.78448e-07, 3.93482e-16, 7.80199e-17, 3.93482e-16, 5.78448e-07
0, 23, 2.3, 59.8517, 8.9164e-16, 7.88951e-16, 8.9164e-16, 5.75542e-07, 2.38039e-16, 7.88951e-16, 2.38039e-16, 5.75542e-07
0, 24, 2.4, 59.8607, -2.29942e-16, -9.84681e-16, -2.29942e-16, 5.6905e-07, -3.59459e-17, -9.84681e-16, -3.59459e-17, 5.6905e-07
0, 25, 2.5, 59.864, -7.12197e-17, -1.43733e-16, -7.12197e-17, 5.61144e-07, -8.645e-16, -1.43733e-16, -8.645e-16, 5.61144e-07
0, 26, 2.6, 59.865, -8.69424e-16, -8.51186e-16, -8.69424e-16, 5.52785e-07, 7.98408e-16, -8.51186e-16, 7.98408e-16, 5.52785e-07
0, 27, 2.7, 59.8651, -3.80417e-16, -3.92135e-16, -3.80417e-16, 5.44296e-07, -1.72555e-16, -3.92135e-16, -1.72555e-16, 5.44296e-07
0, 28, 2.8, 59.8649, 5.62213e-16, 2.3606e-16, 5.62213e-16, 5.35823e-07, -3.90213e-16, 2.3606e-16, -3.90213e-16, 5.35819e-07
0, 29, 2.9, 59.8645, -5.08014e-16, 4.20596e-16, -5.08014e-16, 5.2739e-07, -8.51081e-16, 4.20596e-16, -8.51081e-16, 5.2739e-07
0, 30, 3, 59.8641, 1.04539e-15, -4.67891e-16, 1.04539e-15, 5.19083e-07, 8.39836e-16, -4.67891e-16, 8.39836e-16, 5.19083e-07
0, 31, 3.1, 59.8636, -1.4619e-15, 1.45508e-15, -1.4619e-15, 5.10867e-07, 7.25699e-16, 1.45508e-15, 7.25699e-16, 5.10867e-07
0, 32, 3.2, 59.8631, 3.85083e-16, -1.05102e-15, 3.85083e-16, 5.02738e-07, -1.27228e-15, -1.05102e-15, -1.27228e-15, 5.02738e-07
0, 33, 3.3, 59.8627, 1.00893e-16, -3.4297e-17, 1.00893e-16, 4.94721e-07, -8.99798e-16, -3.4297e-17, -8.99798e-16, 4.94725e-07
0, 34, 3.4, 59.8622, -3.64763e-16, 7.41337e-16, -3.64763e-16, 4.86823e-07, 8.80641e-16, 7.41337e-16, 8.80641e-16, 4.86819e-07
0, 35, 3.5, 59.8617, 4.0461e-16, -5.69584e-16, 4.0461e-16, 4.79017e-07, 1.62365e-15, -5.69584e-16, 1.62365e-15, 4.79017e-07
0, 36, 3.6, 59.8612, 8.35546e-16, -1.27623e-15, 8.35546e-16, 4.71313e-07, 1.11261e-15, -1.27623e-15, 1.11261e-15, 4.71313e-07
0, 37, 3.7, 59.8608, -4.24759e-16, -5.59368e-16, -4.24759e-16, 4.63681e-07, 5.21419e-16, -5.59368e-16, 5.21419e-16, 4.63677e-07
0, 38, 3.8, 59.8603, 2.91203e-16, 1.9394e-16, 2.91203e-16, 4.56162e-07, 3.7147e-16, 1.9394e-16, 3.7147e-16, 4.56162e-07
0, 39, 3.9, 59.8598, -4.16213e-16, 3.81264e-16, -4.16213e-16, 4.48758e-07, 2.31646e-16, 3.81264e-16, 2.31646e-16, 4.48758e-07
0, 40, 4, 59.8593, -3.88766e-16, 2.79041e-15, -3.88766e-16, 4.41429e-07, -2.71437e-16, 2.79041e-15, -2.71437e-16, 4.41429e-07
0, 41, 4.1, 59.8589, 4.96359e-16, -1.40916e-15, 4.96359e-16, 4.34211e-07, -5.39881e-16, -1.40916e-15, -5.39881e-16, 4.34209e-07
0, 42, 4.2, 59.8584, 7.48752e-16, -2.82947e-16, 7.48752e-16, 4.27092e-07, 7.57683e-13, -2.82947e-16, 7.57683e-13, 4.27094e-07
0, 43, 4.3, 59.8579, -8.47197e-16, -5.505e-16, -8.47197e-16, 4.20029e-07, -5.23176e-15, -5.505e-16, -5.23176e-15, 4.20033e-07
0, 44, 4.4, 59.8574, 1.38449e-15, 1.7229e-16, 1.38449e-15, 4.13105e-07, 8.58099e-16, 1.7229e-16, 8.58099e-16, 4.13105e-07
0, 45, 4.5, 59.8569, 8.94954e-17, 3.33531e-16, 8.94954e-17, 4.06249e-07, -1.03305e-15, 3.33531e-16, -1.03305e-15, 4.06249e-07
0, 46, 4.6, 59.8565, 2.54958e-16, -9.00635e-17, 2.54958e-16, 3.99494e-07, 1.04595e-15, -9.00635e-17, 1.04595e-15, 3.99494e-07
0, 47, 4.7, 59.856, 5.23697e-16, 3.14808e-16, 5.23697e-16, 3.92828e-07, -8.00664e-16, 3.14808e-16, -8.00664e-16, 3.92828e-07
0, 48, 4.8, 59.8555, -6.56852e-16, 1.09636e-15, -6.56852e-16, 3.8624e-07, 7.46594e-16, 1.09636e-15, 7.46594e-16, 3.8624e-07
0, 49, 4.9, 59.855, 5.3215e-16, 1.30782e-15, 5.3215e-16, 3.79736e-07, -2.11241e-15, 1.30782e-15, -2.11241e-15, 3.7974e-07
0, 50, 5, 59.8546, 3.81931e-16, 3.05314e-16, 3.81931e-16, 3.73335e-07, 1.11263e-13, 3.05314e-16, 1.11263e-13, 3.73333e-07
1, 1, 5.2, 45.4943, 1.5721e-16, 9.47238e-16, 1.5721e-16, 8.02766e-07, 3.01727e-13, 9.47238e-16, 3.01727e-13, 8.02763e-07
1, 2, 5.4, 37.8525, 6.7001e-16, 4.21439e-16, 6.7001e-16, 8.0503e-08, 8.08425e-13, 4.21439e-16, 8.08425e-13, 8.0503e-08
1, 3, 5.6, 30.5991, -1.6195e-15, -2.66165e-16, -1.6195e-15, 3.97816e-08, 7.22082e-13, -2.66165e-16, 7.22082e-13, 3.97834e-08
1, 4, 5.8, 23.4102, -2.53721e-15, -2.10364e-16, -2.53721e-15, 3.30815e-08, 7.15157e-15, -2.10364e-16, 7.15157e-15, 3.30815e-08
1, 5, 6, 16.2294, -1.21856e-15, 2.82509e-15, -1.21856e-15, 3.22388e-08, 1.39678e-13, 2.82509e-15, 1.39678e-13, 3.22388e-08
1, 6, 6.2, 9.04897, -1.90648e-15, -1.97838e-15, -1.90648e-15, 3.21787e-08, 1.17759e-13, -1.97838e-15, 1.17759e-13, 3.21787e-08
1, 7, 6.4, 1.8684, 6.09804e-16, 2.49837e-16, 6.09804e-16, 3.21832e-08, 6.36554e-13, 2.49837e-16, 6.36554e-13, 3.2187e-08
1, 8, 6.6, -5.31232, 2.08394e-16, 1.90214e-16, 2.08394e-16, 3.21998e-08, 5.66335e-13, 1.90214e-16, 5.66335e-13, 3.21998e-08
1, 9, 6.8, -12.4932, 2.08113e-16, -4.69451e-16, 2.08113e-16, 3.21921e-08, 9.91844e-13, -4.69451e-16, 9.91844e-13, 3.21921e-08
1, 10, 7, -19.6742, -1.79811e-17, -6.50333e-17, -1.79811e-17, 3.2197e-08, -1.61144e-13, -6.50333e-17, -1.61144e-13, 3.21932e-08
1, 11, 7.2, -26.8553, 9.32751e-17, -6.10023e-16, 9.32751e-17, 3.21923e-08, 1.36213e-12, -6.10023e-16, 1.36213e-12, 3.21923e-08
1, 12, 7.4, -34.0343, 4.38198e-16, 9.05359e-16, 4.38198e-16, 3.19721e-08, -1.76563e-13, 9.05359e-16, -1.76563e-13, 3.19721e-08
1, 13, 7.6, -41.1905, 5.5187e-16, 3.89247e-16, 5.5187e-16, 2.9619e-08, 9.71862e-13, 3.89247e-16, 9.71862e-13, 2.9619e-08
1, 14, 7.8, -48.2014, 1.12026e-15, 1.02237e-16, 1.12026e-15, 1.46098e-08, -5.02769e-13, 1.02237e-16, -5.02769e-13, 1.46098e-08
1, 15, 8, -54.5612, -4.64093e-17, -7.08674e-17, -4.64093e-17, -5.26939e-08, 1.18711e-12, -7.08674e-17, 1.18711e-12, -5.26939e-08
1, 16, 8.2, -58.9048, -3.84933e-16, 2.16221e-16, -3.84933e-16, -2.6223e-07, -3.37576e-13, 2.16221e-16, -3.37576e-13, -2.6223e-07
1, 17, 8.4, -59.9814, -3.39522e-16, -3.49799e-16, -3.39522e-16, -6.09583e-07, -1.03792e-13, -3.49799e-16, -1.03792e-13, -6.09583e-07
1, 18, 8.6, -59.8466, 3.93253e-16, 1.33074e-17, 3.93253e-16, -7.59051e-07, -5.88041e-16, 1.33074e-17, -5.88041e-16, -7.59051e-07
1, 19, 8.8, -59.8758, -2.86541e-16, 1.2557e-17, -2.86541e-16, -7.67511e-07, 1.98215e-18, 1.2557e-17, 1.98215e-18, -7.67504e-07
1, 20, 9, -59.8711, -1.18697e-16, 1.2671e-16, -1.18697e-16, -7.97721e-07, -3.06222e-16, 1.2671e-16, -3.06222e-16, -7.97721e-07
1, 21, 9.2, -59.8732, -4.30814e-16, 8.04116e-17, -4.30814e-16, -8.24162e-07, 3.6061e-16, 8.04116e-17, 3.6061e-16, -8.24162e-07
1, 22, 9.4, -59.874, 3.9967e-16, -4.14922e-16, 3.9967e-16, -8.52274e-07, 1.47318e-16, -4.14922e-16, 1.47318e-16, -8.52274e-07
1, 23, 9.6, -59.875, -9.72361e-17, 7.08822e-17, -9.72361e-17, -8.80941e-07, 1.92661e-16, 7.08822e-17, 1.92661e-16, -8.80949e-07
1, 24, 9.8, -59.8759, 4.59989e-13, 1.31929e-13, 4.59989e-13, -9.10448e-07, -4.47033e-13, 1.31929e-13, -4.47033e-13, -9.10444e-07
1, 25, 10, -59.8769, 1.69594e-15, 1.97062e-15, 1.69594e-15, -9.40692e-07, -5.75098e-13, 1.97062e-15, -5.75098e-13, -9.40688e-07
1, 26, 10.2, -59.8778, 5.99876e-13, 1.02528e-13, 5.99876e-13, -9.71718e-07, -4.50092e-13, 1.02528e-13, -4.50092e-13, -9.71717e-07
1, 27, 10.4, -59.8788, 1.07122e-12, 5.19705e-13, 1.07122e-12, -1.00359e-06, -4.74981e-13, 5.19705e-13, -4.74981e-13, -1.00359e-06
1, 28, 10.6, -59.8797, 4.24215e-13, -2.04547e-13, 4.24215e-13, -1.03627e-06, -4.96535e-13, -2.04547e-13, -4.96535e-13, -1.03626e-06
1, 29, 10.8, -59.8807, -2.04133e-12, -1.92185e-12, -2.04133e-12, -1.06981e-06, 9.67482e-13, -1.92185e-12, 9.67482e-13, -1.06981e-06
1, 30, 11, -59.8817, -2.7042e-13, -7.46937e-13, -2.7042e-13, -1.10421e-06, -8.05233e-13, -7.46937e-13, -8.05233e-13, -1.10422e-06
1, 31, 11.2, -59.8826, -3.7736e-13, -3.47146e-13, -3.7736e-13, -1.13945e-06, -3.53172e-13, -3.47146e-13, -3.53172e-13, -1.13945e-06
1, 32, 11.4, -59.8836, 3.93761e-13, -1.62766e-13, 3.93761e-13, -1.17561e-06, 4.96843e-13, -1.62766e-13, 4.96843e-13, -1.17562e-06
1, 33, 11.6, -59.8845, 3.80467e-13, 3.60661e-13, 3.80467e-13, -1.21266e-06, 1.28995e-12, 3.60661e-13, 1.28995e-12, -1.21266e-06
1, 34, 11.8, -59.8855, 2.95512e-13, 7.74855e-13, 2.95512e-13, -1.25064e-06, 1.77393e-12, 7.74855e-13, 1.77393e-12, -1.25063e-06
1, 35, 12, -59.8865, 1.88999e-14, 9.46669e-14, 1.88999e-14, -1.28956e-06, 4.30967e-13, 9.46669e-14, 4.30967e-13, -1.28956e-06
1, 36, 12.2, -59.8874, -7.095e-13, -9.27012e-13, -7.095e-13, -1.32943e-06, 1.59354e-12, -9.27012e-13, 1.59354e-12, -1.32943e-06
1, 37, 12.4, -59.8884, -6.87505e-13, -6.98539e-13, -6.87505e-13, -1.37027e-06, -2.71637e-13, -6.98539e-13, -2.71637e-13, -1.37027e-06
1, 38, 12.6, -59.8893, -6.0449e-13, -7.42547e-13, -6.0449e-13, -1.41211e-06, 2.24571e-12, -7.42547e-13, 2.24571e-12, -1.41211e-06
1, 39, 12.8, -59.8903, -1.47454e-12, -5.04554e-13, -1.47454e-12, -1.45494e-06, 2.43436e-12, -5.04554e-13, 2.43436e-12, -1.45494e-06
1, 40, 13, -59.8913, -3.23115e-13, -5.76703e-13, -3.23115e-13, -1.49882e-06, 1.42971e-12, -5.76703e-13, 1.42971e-12, -1.49882e-06
1, 41, 13.2, -59.8922, 1.34883e-12, 1.28156e-12, 1.34883e-12, -1.54375e-06, 1.05205e-12, 1.28156e-12, 1.05205e-12, -1.54375e-06
1, 42, 13.4, -59.8932, -9.46073e-13, 5.20834e-15, -9.46073e-13, -1.58972e-06, 1.22702e-12, 5.20834e-15, 1.22702e-12, -1.58972e-06
1, 43, 13.6, -59.8941, -6.66857e-13, -1.65969e-14, -6.66857e-13, -1.63678e-06, 9.92764e-13, -1.65969e-14, 9.92764e-13, -1.63678e-06
1, 44, 13.8, -59.8951, -9.81399e-13, -6.96278e-13, -9.81399e-13, -1.68493e-06, 6.65395e-13, -6.96278e-13, 6.65395e-13, -1.68493e-06
1, 45, 14, -59.8961, -6.50373e-13, 1.34442e-13, -6.50373e-13, -1.7342e-06, 2.87611e-12, 1.34442e-13, 2.87611e-12, -1.7342e-06
1, 46, 14.2, -59.897, -2.48605e-13, 4.46458e-13, -2.48605e-13, -1.78461e-06, 2.27476e-12, 4.46458e-13, 2.27476e-12, -1.78461e-06
1, 47, 14.4, -59.898, -6.08787e-13, -8.0748e-13, -6.08787e-13, -1.83617e-06, 1.53751e-12, -8.0748e-13, 1.53751e-12, -1.83617e-06
1, 48, 14.6, -59.8989, 3.27201e-13, -2.39182e-13, 3.27201e-13, -1.8889e-06, 3.91956e-12, -2.39182e-13, 3.91956e-12, -1.8889e-06
1, 49, 14.8, -59.8999, -1.82809e-13, 4.00747e-13, -1.82809e-13, -1.94283e-06, 2.21663e-12, 4.00747e-13, 2.21663e-12, -1.94283e-06
1, 50, 15, -59.9009, -1.7087e-12, -1.20619e-12, -1.7087e-12, -1.99795e-06, 1.63414e-12, -1.20619e-12, 1.63414e-12, -1.99795e-06
2, 1, 15.08, -49.7904, -9.66977e-13, -1.48099e-12, -9.66977e-13, -1.02153e-06, 2.5363e-13, -1.48099e-12, 2.5363e-13, -1.02153e-06
2, 2, 15.16, -42.1137, -1.04285e-12, -1.0355e-12, -1.04285e-12, -2.85762e-07, 8.96299e-13, -1.0355e-12, 8.96299e-13, -2.85764e-07
2, 3, 15.24, -34.8066, 3.07378e-13, 7.17629e-14, 3.07378e-13, -1.72875e-07, -7.17216e-14, 7.17629e-14, -7.17216e-14, -1.72875e-07
2, 4, 15.32, -27.5724, -8.78228e-13, -1.30671e-12, -8.78228e-13, -1.50629e-07, -8.24306e-14, -1.30671e-12, -8.24306e-14, -1.50627e-07
2, 5, 15.4, -20.3497, -1.13544e-12, -1.75122e-12, -1.13544e-12, -1.47106e-07, 2.66218e-13, -1.75122e-12, 2.66218e-13, -1.47104e-07
2, 6, 15.48, -13.1283, 4.52624e-14, -4.31103e-13, 4.52624e-14, -1.46729e-07, 3.51805e-14, -4.31103e-13, 3.51805e-14, -1.46729e-07
2, 7, 15.56, -5.90721, -5.5923e-13, -1.156e-12, -5.5923e-13, -1.4668e-07, 3.47168e-13, -1.156e-12, 3.47168e-13, -1.46676e-07
2, 8, 15.64, 1.31375, -1.14076e-12, -9.07274e-13, -1.14076e-12, -1.46665e-07, -5.18595e-13, -9.07274e-13, -5.18595e-13, -1.46665e-07
2, 9, 15.72, 8.53456, -7.42892e-13, -7.31744e-13, -7.42892e-13, -1.4664e-07, 3.49639e-13, -7.31744e-13, 3.49639e-13, -1.46638e-07
2, 10, 15.8, 15.7552, -1.35159e-12, -7.41271e-13, -1.35159e-12, -1.46611e-07, -3.51483e-14, -7.41271e-13, -3.51483e-14, -1.46611e-07
2, 11, 15.88, 22.9757, -4.58183e-13, -9.73357e-13, -4.58183e-13, -1.46589e-07, 2.14637e-13, -9.73357e-13, 2.14637e-13, -1.46589e-07
2, 12, 15.96, 30.1958, -1.45059e-12, -8.83435e-13, -1.45059e-12, -1.46506e-07, 5.82034e-13, -8.83435e-13, 5.82034e-13, -1.46506e-07
2, 13, 16.04, 37.4129, -1.68418e-13, -6.16405e-13, -1.68418e-13, -1.45616e-07, 2.40179e-13, -6.16405e-13, 2.40179e-13, -1.45616e-07
2, 14, 16.12, 44.6068, -1.76243e-12, -2.40657e-12, -1.76243e-12, -1.38493e-07, 4.44426e-13, -2.40657e-12, 4.44426e-13, -1.38492e-07
2, 15, 16.2, 51.6749, 4.41905e-13, 7.74168e-13, 4.41905e-13, -9.97774e-08, -6.50038e-13, 7.74168e-13, -6.50038e-13, -9.97756e-08
2, 16, 16.28, 58.2337, -2.12399e-12, -2.65164e-12, -2.12399e-12, 5.69173e-08, 9.71965e-13, -2.65164e-12, 9.71965e-13, 5.69154e-08
2, 17, 16.36, 63.27, -1.92737e-12, -2.21381e-12, -1.92737e-12, 5.23931e-07, 8.72089e-13, -2.21381e-12, 8.72089e-13, 5.23935e-07
2, 18, 16.44, 65.4848, -1.56645e-12, -2.17682e-12, -1.56645e-12, 1.37814e-06, -1.5047e-14, -2.17682e-12, -1.5047e-14, 1.37814e-06
2, 19, 16.52, 65.6437, -3.66068e-13, -2.61312e-13, -3.66068e-13, 1.96529e-06, 9.74077e-14, -2.61312e-13, 9.74077e-14, 1.96529e-06
2, 20, 16.6, 65.6283, -1.2997e-12, -1.19918e-12, -1.2997e-12, 1.96266e-06, -3.61902e-13, -1.19918e-12, -3.61902e-13, 1.96266e-06
2, 21, 16.68, 65.6287, -4.98456e-13, -4.96267e-13, -4.98456e-13, 1.90376e-06, 3.21847e-13, -4.96267e-13, 3.21847e-13, 1.90376e-06
2, 22, 16.76, 65.6275, -1.27847e-12, -1.12706e-12, -1.27847e-12, 1.85122e-06, -4.84042e-14, -1.12706e-12, -4.84042e-14, 1.85121e-06
2, 23, 16.84, 65.6265, -1.12024e-12, -1.13415e-12, -1.12024e-12, 1.79937e-06, -9.41688e-13, -1.13415e-12, -9.41688e-13, 1.79937e-06
2, 24, 16.92, 65.6254, -6.89902e-13, -1.71923e-13, -6.89902e-13, 1.74872e-06, -1.16733e-12, -1.71923e-13, -1.16733e-12, 1.74872e-06
2, 25, 17, 65.6244, -2.11887e-13, 4.47232e-13, -2.11887e-13, 1.69919e-06, -1.18647e-12, 4.47232e-13, -1.18647e-12, 1.69919e-06
2, 26, 17.08, 65.6233, -9.74289e-13, 1.50417e-13, -9.74289e-13, 1.6508e-06, -2.02362e-12, 1.50417e-13, -2.02362e-12, 1.6508e-06
2, 27, 17.16, 65.6223, -1.57233e-12, -5.73497e-13, -1.57233e-12, 1.6035e-06, -1.91512e-12, -5.73497e-13, -1.91512e-12, 1.6035e-06
2, 28, 17.24, 65.6212, -2.81229e-13, -1.36398e-12, -2.81229e-13, 1.55727e-06, -1.77025e-12, -1.36398e-12, -1.77025e-12, 1.55727e-06
2, 29, 17.32, 65.6202, -6.57793e-13, 2.08917e-13, -6.57793e-13, 1.51212e-06, -1.27564e-12, 2.08917e-13, -1.27564e-12, 1.51212e-06
2, 30, 17.4, 65.6191, 5.37931e-13, 3.18129e-13, 5.37931e-13, 1.46801e-06, -5.55855e-13, 3.18129e-13, -5.55855e-13, 1.46801e-06
2, 31, 17.48, 65.6181, -6.04881e-14, -4.31678e-14, -6.04881e-14, 1.42493e-06, -1.64344e-12, -4.31678e-14, -1.64344e-12, 1.42493e-06
2, 32, 17.56, 65.617, -4.08137e-13, -7.35967e-13, -4.08137e-13, 1.38285e-06, -2.68882e-12, -7.35967e-13, -2.68882e-12, 1.38285e-06
2, 33, 17.64, 65.616, -1.07764e-12, -8.30575e-13, -1.07764e-12, 1.34177e-06, -5.70821e-13, -8.30575e-13, -5.70821e-13, 1.34177e-06
2, 34, 17.72, 65.6149, -8.3812e-13, -1.11878e-12, -8.3812e-13, 1.30166e-06, -2.55594e-12, -1.11878e-12, -2.55594e-12, 1.30166e-06
2, 35, 17.8, 65.6139, -2.06169e-13, -6.21064e-13, -2.06169e-13, 1.26251e-06, -1.88336e-12, -6.21064e-13, -1.88336e-12, 1.26251e-06
2, 36, 17.88, 65.6128, 2.08685e-13, 9.96582e-14, 2.08685e-13, 1.22431e-06, -5.67606e-13, 9.96582e-14, -5.67606e-13, 1.22431e-06
2, 37, 17.96, 65.6118, -5.6863e-13, -2.49219e-13, -5.6863e-13, 1.18702e-06, -1.8755e-12, -2.49219e-13, -1.8755e-12, 1.18702e-06
2, 38, 18.04, 65.6107, -5.80089e-13, -2.46132e-13, -5.80089e-13, 1.15066e-06, -1.15886e-12, -2.46132e-13, -1.15886e-12, 1.15066e-06
2, 39, 18.12, 65.6097, 4.46317e-13, 3.44212e-13, 4.46317e-13, 1.11517e-06, -8.90151e-13, 3.44212e-13, -8.90151e-13, 1.11517e-06
2, 40, 18.2, 65.6086, -9.39888e-13, -7.78027e-13, -9.39888e-13, 1.08056e-06, -8.01478e-13, -7.78027e-13, -8.01478e-13, 1.08056e-06
2, 41, 18.28, 65.6076, 3.57245e-14, 3.90323e-13, 3.57245e-14, 1.04682e-06, -7.69297e-13, 3.90323e-13, -7.69297e-13, 1.04682e-06
2, 42, 18.36, 65.6065, -3.33939e-13, 7.43853e-13, -3.33939e-13, 1.01392e-06, 6.33977e-13, 7.43853e-13, 6.33977e-13, 1.01392e-06
2, 43, 18.44, 65.6055, -2.4045e-13, -2.20027e-13, -2.4045e-13, 9.81842e-07, -1.09672e-12, -2.20027e-13, -1.09672e-12, 9.81842e-07
2, 44, 18.52, 65.6045, -1.80794e-13, 5.92064e-13, -1.80794e-13, 9.50593e-07, -2.75479e-13, 5.92064e-13, -2.75479e-13, 9.50593e-07
2, 45, 18.6, 65.6034, -3.22111e-13, 6.19557e-13, -3.22111e-13, 9.2014e-07, -2.90031e-13, 6.19557e-13, -2.90031e-13, 9.20141e-07
2, 46, 18.68, 65.6024, -4.34067e-13, 4.53825e-13, -4.34067e-13, 8.90456e-07, -8.12426e-13, 4.53825e-13, -8.12426e-13, 8.90456e-07
2, 47, 18.76, 65.6013, 1.69287e-12, 1.93907e-12, 1.69287e-12, 8.61536e-07, 7.8906e-14, 1.93907e-12, 7.8906e-14, 8.61535e-07
2, 48, 18.84, 65.6003, 2.58506e-13, 7.93253e-13, 2.58506e-13, 8.33393e-07, -1.26943e-12, 7.93253e-13, -1.26943e-12, 8.33391e-07
2, 49, 18.92, 65.5992, 8.07864e-13, 1.23359e-12, 8.07864e-13, 8.05981e-07, -2.35885e-13, 1.23359e-12, -2.35885e-13, 8.05981e-07
2, 50, 19, 65.5982, -2.69756e-13, 5.18916e-13, -2.69756e-13, 7.79297e-07, -2.22584e-12, 5.18916e-13, -2.22584e-12, 7.79295e-07
3, 1, 19.08, 51.2363, 3.26226e-13, 2.29355e-13, 3.26226e-13, 8.25112e-07, -7.39506e-13, 2.29355e-13, -7.39506e-13, 8.25111e-07
3, 2, 19.16, 43.449, -1.04407e-13, -4.5117e-14, -1.04407e-13, 9.84186e-08, -1.14114e-12, -4.5117e-14, -1.14114e-12, 9.84186e-08
3, 3, 19.24, 36.1516, 5.51043e-13, 1.05664e-12, 5.51043e-13, 4.57877e-08, 6.94677e-13, 1.05664e-12, 6.94677e-13, 4.57868e-08
3, 4, 19.32, 28.9522, -2.07564e-13, 5.56275e-13, -2.07564e-13, 3.53516e-08, -2.28207e-12, 5.56275e-13, -2.28207e-12, 3.53516e-08
3, 5, 19.4, 21.7692, -1.19876e-13, -4.34275e-14, -1.19876e-13, 3.35939e-08, -1.22239e-12, -4.34275e-14, -1.22239e-12, 3.35939e-08
3, 6, 19.48, 14.5879, -2.7572e-13, -1.73664e-13, -2.7572e-13, 3.33988e-08, 1.46813e-12, -1.73664e-13, 1.46813e-12, 3.33979e-08
3, 7, 19.56, 7.40654, 4.70816e-13, 1.05831e-12, 4.70816e-13, 3.33911e-08, 2.78253e-13, 1.05831e-12, 2.78253e-13, 3.33902e-08
3, 8, 19.64, 0.225056, 8.6576e-13, 1.47263e-12, 8.6576e-13, 3.34062e-08, 6.16402e-13, 1.47263e-12, 6.16402e-13, 3.34052e-08
3, 9, 19.72, -6.95658, 3.65917e-13, 1.03594e-12, 3.65917e-13, 3.3424e-08, 4.67344e-13, 1.03594e-12, 4.67344e-13, 3.34212e-08
3, 10, 19.8, -14.1384, -9.80032e-13, 5.8858e-14, -9.80032e-13, 3.34391e-08, -6.74906e-13, 5.8858e-14, -6.74906e-13, 3.34363e-08
3, 11, 19.88, -21.3203, -5.14643e-13, -1.54441e-13, -5.14643e-13, 3.34169e-08, -3.03305e-13, -1.54441e-13, -3.03305e-13, 3.34151e-08
3, 12, 19.96, -28.5024, 1.12674e-12, 1.8871e-12, 1.12674e-12, 3.34223e-08, 5.51884e-13, 1.8871e-12, 5.51884e-13, 3.34251e-08
3, 13, 20.04, -35.6829, 1.10089e-13, 1.39344e-13, 1.10089e-13, 3.32758e-08, -3.02314e-13, 1.39344e-13, -3.02314e-13, 3.32739e-08
3, 14, 20.12, -42.8491, 1.06071e-13, 6.9469e-13, 1.06071e-13, 3.17214e-08, -1.43194e-13, 6.9469e-13, -1.43194e-13, 3.17214e-08
3, 15, 20.2, -49.9303, 5.4099e-13, 6.3385e-13, 5.4099e-13, 2.27278e-08, 4.35352e-13, 6.3385e-13, 4.35352e-13, 2.27278e-08
3, 16, 20.28, -56.6454, -1.39691e-13, 4.85893e-13, -1.39691e-13, -1.6122e-08, -2.08805e-13, 4.85893e-13, -2.08805e-13, -1.61173e-08
3, 17, 20.36, -62.1766, 7.15045e-14, 1.07127e-13, 7.15045e-14, -1.42025e-07, -9.24931e-13, 1.07127e-13, -9.24931e-13, -1.42025e-07
3, 18, 20.44, -65.1669, -3.62987e-13, -1.5493e-13, -3.62987e-13, -4.15445e-07, 1.51401e-13, -1.5493e-13, 1.51401e-13, -4.15444e-07
3, 19, 20.52, -65.6439, -6.91694e-13, -1.60997e-13, -6.91694e-13, -6.98626e-07, 1.28053e-12, -1.60997e-13, 1.28053e-12, -6.98627e-07
3, 20, 20.6, -65.6145, -6.71047e-13, -2.16744e-13, -6.71047e-13, -7.78475e-07, 1.33522e-12, -2.16744e-13, 1.33522e-12, -7.78477e-07
3, 21, 20.68, -65.6185, 2.6527e-13, 2.13691e-13, 2.6527e-13, -8.01471e-07, 1.20868e-12, 2.13691e-13, 1.20868e-12, -8.01472e-07
3, 22, 20.76, -65.6193, 1.27254e-13, 1.16371e-12, 1.27254e-13, -8.29179e-07, -8.31568e-13, 1.16371e-12, -8.31568e-13, -8.29177e-07
3, 23, 20.84, -65.6204, 1.729e-12, 2.06814e-12, 1.729e-12, -8.57241e-07, -1.82414e-13, 2.06814e-12, -1.82414e-13, -8.57243e-07
3, 24, 20.92, -65.6214, 2.12245e-13, 9.46228e-13, 2.12245e-13, -8.86099e-07, 1.47798e-13, 9.46228e-13, 1.47798e-13, -8.86097e-07
3, 25, 21, -65.6225, 1.05652e-12, 1.31998e-12, 1.05652e-12, -9.15687e-07, 1.27983e-13, 1.31998e-12, 1.27983e-13, -9.15687e-07
3, 26, 21.08, -65.6235, 1.32686e-12, 1.78751e-12, 1.32686e-12, -9.46082e-07, -4.6091e-14, 1.78751e-12, -4.6091e-14, -9.4608e-07
3, 27, 21.16, -65.6246, -4.4461e-15, 3.82561e-13, -4.4461e-15, -9.7727e-07, 2.49529e-13, 3.82561e-13, 2.49529e-13, -9.77269e-07
3, 28, 21.24, -65.6256, 2.79838e-12, 2.69356e-12, 2.79838e-12, -1.00928e-06, 6.65207e-13, 2.69356e-12, 6.65207e-13, -1.00928e-06
3, 29, 21.32, -65.6267, 3.76195e-12, 3.68101e-12, 3.76195e-12, -1.04211e-06, 3.53076e-13, 3.68101e-12, 3.53076e-13, -1.04212e-06
3, 30, 21.4, -65.6277, 2.10668e-12, 3.06808e-12, 2.10668e-12, -1.0758e-06, 7.87236e-14, 3.06808e-12, 7.87236e-14, -1.0758e-06
3, 31, 21.48, -65.6288, 1.11581e-12, 7.76087e-13, 1.11581e-12, -1.11035e-06, 1.00325e-12, 7.76087e-13, 1.00325e-12, -1.11035e-06
3, 32, 21.56, -65.6298, -5.49705e-13, -1.3138e-12, -5.49705e-13, -1.14577e-06, 7.89835e-13, -1.3138e-12, 7.89835e-13, -1.14577e-06
3, 33, 21.64, -65.6309, -1.07928e-12, -6.4529e-13, -1.07928e-12, -1.18208e-06, 4.69489e-13, -6.4529e-13, 4.69489e-13, -1.18208e-06
3, 34, 21.72, -65.6319, -6.40325e-13, -6.64008e-13, -6.40325e-13, -1.21931e-06, 6.23445e-13, -6.64008e-13, 6.23445e-13, -1.21931e-06
3, 35, 21.8, -65.633, 4.95208e-13, 1.01798e-12, 4.95208e-13, -1.25744e-06, -1.79807e-13, 1.01798e-12, -1.79807e-13, -1.25744e-06
3, 36, 21.88, -65.634, 2.27821e-12, 1.82506e-12, 2.27821e-12, -1.29653e-06, 1.28356e-12, 1.82506e-12, 1.28356e-12, -1.29653e-06
3, 37, 21.96, -65.6351, 1.08526e-13, 9.68187e-13, 1.08526e-13, -1.33658e-06, -1.88382e-13, 9.68187e-13, -1.88382e-13, -1.33658e-06
3, 38, 22.04, -65.6361, 1.45751e-12, 9.57233e-13, 1.45751e-12, -1.3776e-06, 1.11353e-12, 9.57233e-13, 1.11353e-12, -1.3776e-06
3, 39, 22.12, -65.6372, 1.77588e-12, 9.03357e-13, 1.77588e-12, -1.41963e-06, -1.01106e-12, 9.03357e-13, -1.01106e-12, -1.41963e-06
3, 40, 22.2, -65.6382, 8.14194e-13, 9.47264e-13, 8.14194e-13, -1.46265e-06, -5.451e-13, 9.47264e-13, -5.451e-13, -1.46265e-06
3, 41, 22.28, -65.6393, 2.52056e-12, 1.98335e-12, 2.52056e-12, -1.50672e-06, -7.91903e-13, 1.98335e-12, -7.91903e-13, -1.50672e-06
3, 42, 22.36, -65.6403, 2.221e-12, 1.40176e-12, 2.221e-12, -1.55183e-06, -1.24082e-12, 1.40176e-12, -1.24082e-12, -1.55183e-06
3, 43, 22.44, -65.6414, 3.00747e-12, 2.49829e-12, 3.00747e-12, -1.59799e-06, 9.50037e-13, 2.49829e-12, 9.50037e-13, -1.59799e-06
3, 44, 22.52, -65.6424, 2.47929e-12, 2.94676e-12, 2.47929e-12, -1.64526e-06, 1.0262e-12, 2.94676e-12, 1.0262e-12, -1.64526e-06
3, 45, 22.6, -65.6435, 2.37135e-12, 2.25248e-12, 2.37135e-12, -1.6936e-06, 4.28638e-13, 2.25248e-12, 4.28638e-13, -1.6936e-06
3, 46, 22.68, -65.6445, 1.62217e-12, 1.86184e-12, 1.62217e-12, -1.74308e-06, 1.75765e-12, 1.86184e-12, 1.75765e-12, -1.74307e-06
3, 47, 22.76, -65.6456, 2.11534e-12, 2.59514e-12, 2.11534e-12, -1.7937e-06, 2.13206e-12, 2.59514e-12, 2.13206e-12, -1.7937e-06
3, 48, 22.84, -65.6467, 7.97405e-14, 2.91492e-13, 7.97405e-14, -1.84547e-06, 1.40673e-12, 2.91492e-13, 1.40673e-12, -1.84547e-06
3, 49, 22.92, -65.6477, 1.11999e-12, 1.36818e-13, 1.11999e-12, -1.89842e-06, 2.96858e-12, 1.36818e-13, 2.96858e-12, -1.89842e-06
3, 50, 23, -65.6488, 1.81126e-12, 1.07174e-12, 1.81126e-12, -1.95256e-06, 4.2222e-12, 1.07174e-12, 4.2222e-12, -1.95256e-06
4, 1, 23.032, -55.5394, 1.00995e-12, 6.73076e-13, 1.00995e-12, -9.96825e-07, 3.29751e-12, 6.73076e-13, 3.29751e-12, -9.96828e-07
4, 2, 23.064, -47.7758, 1.37916e-12, 1.1879e-12, 1.37916e-12, -3.04443e-07, 3.11239e-12, 1.1879e-12, 3.11239e-12, -3.04444e-07
4, 3, 23.096, -40.4344, 1.72675e-12, 1.53121e-12, 1.72675e-12, -1.78439e-07, 3.16773e-12, 1.53121e-12, 3.16773e-12, -1.78446e-07
4, 4, 23.128, -33.1909, 1.23969e-12, 1.44455e-12, 1.23969e-12, -1.49177e-07, 3.73377e-12, 1.44455e-12, 3.73377e-12, -1.49177e-07
4, 5, 23.16, -25.9671, 4.11166e-13, 3.4425e-13, 4.11166e-13, -1.43284e-07, 3.99184e-12, 3.4425e-13, 3.99184e-12, -1.43289e-07
4, 6, 23.192, -18.7463, 2.21306e-12, 2.18678e-12, 2.21306e-12, -1.42399e-07, 3.03705e-12, 2.18678e-12, 3.03705e-12, -1.424e-07
4, 7, 23.224, -11.5259, 1.14794e-12, 9.76174e-13, 1.14794e-12, -1.4229e-07, 3.0926e-12, 9.76174e-13, 3.0926e-12, -1.42293e-07
4, 8, 23.256, -4.30576, 1.67501e-12, 1.8578e-12, 1.67501e-12, -1.42286e-07, 2.66179e-12, 1.8578e-12, 2.66179e-12, -1.42289e-07
4, 9, 23.288, 2.91427, -8.53872e-14, 1.70962e-13, -8.53872e-14, -1.42251e-07, 2.75678e-12, 1.70962e-13, 2.75678e-12, -1.4225e-07
4, 10, 23.32, 10.1341, -3.76139e-13, -5.91474e-14, -3.76139e-13, -1.42243e-07, 2.82926e-12, -5.91474e-14, 2.82926e-12, -1.42242e-07
4, 11, 23.352, 17.3539, -8.81846e-14, 3.9086e-13, -8.81846e-14, -1.42223e-07, 3.30606e-12, 3.9086e-13, 3.30606e-12, -1.42224e-07
4, 12, 23.384, 24.5734, 1.62001e-13, 3.74143e-13, 1.62001e-13, -1.422e-07, 2.30126e-12, 3.74143e-13, 2.30126e-12, -1.422e-07
4, 13, 23.416, 31.7927, 1.05184e-12, 1.07307e-12, 1.05184e-12, -1.42123e-07, 3.58232e-12, 1.07307e-12, 3.58232e-12, -1.42124e-07
4, 14, 23.448, 39.0098, 5.66722e-13, 1.55447e-13, 5.66722e-13, -1.41529e-07, 3.36377e-12, 1.55447e-13, 3.36377e-12, -1.41531e-07
4, 15, 23.48, 46.213, -4.28079e-13, -2.76699e-13, -4.28079e-13, -1.37361e-07, 2.79591e-12, -2.76699e-13, 2.79591e-12, -1.3736e-07
4, 16, 23.512, 53.3455, 1.14966e-12, 7.95811e-13, 1.14966e-12, -1.16089e-07, 3.34964e-12, 7.95811e-13, 3.34964e-12, -1.16089e-07
4, 17, 23.544, 60.2009, 1.9544e-12, 1.33321e-12, 1.9544e-12, -3.2738e-08, 3.61028e-12, 1.33321e-12, 3.61028e-12, -3.2737e-08
4, 18, 23.576, 66.202, -4.18e-13, -7.00348e-15, -4.18e-13, 2.23869e-07, 2.82187e-12, -7.00348e-15, 2.82187e-12, 2.23872e-07
4, 19, 23.608, 70.2713, -2.3302e-13, -8.90619e-13, -2.3302e-13, 8.0029e-07, 3.78618e-12, -8.90619e-13, 3.78618e-12, 8.00291e-07
4, 20, 23.64, 71.7709, 5.30521e-13, -2.10196e-13, 5.30521e-13, 1.54947e-06, 2.79205e-12, -2.10196e-13, 2.79205e-12, 1.54947e-06
4, 21, 23.672, 71.9253, 1.76434e-12, 1.54819e-12, 1.76434e-12, 1.90384e-06, 2.95251e-12, 1.54819e-12, 2.95251e-12, 1.90384e-06
4, 22, 23.704, 71.9251, 9.52584e-13, 9.32729e-13, 9.52584e-13, 1.89542e-06, 3.09549e-12, 9.32729e-13, 3.09549e-12, 1.89542e-06
4, 23, 23.736, 71.924, 4.41504e-13, 2.25696e-13, 4.41504e-13, 1.8429e-06, 2.68043e-12, 2.25696e-13, 2.68043e-12, 1.8429e-06
4, 24, 23.768, 71.9228, 3.15976e-13, -6.86583e-13, 3.15976e-13, 1.79125e-06, 1.60423e-12, -6.86583e-13, 1.60423e-12, 1.79126e-06
4, 25, 23.8, 71.9217, 2.96406e-13, -6.71801e-13, 2.96406e-13, 1.74079e-06, 1.58071e-12, -6.71801e-13, 1.58071e-12, 1.7408e-06
4, 26, 23.832, 71.9205, 2.57594e-13, -1.26968e-13, 2.57594e-13, 1.69147e-06, 8.93082e-13, -1.26968e-13, 8.93082e-13, 1.69147e-06
4, 27, 23.864, 71.9194, 1.19699e-12, 3.92136e-13, 1.19699e-12, 1.64325e-06, 2.9533e-12, 3.92136e-13, 2.9533e-12, 1.64325e-06
4, 28, 23.896, 71.9182, 3.08718e-13, 1.07668e-13, 3.08718e-13, 1.59613e-06, 1.46551e-12, 1.07668e-13, 1.46551e-12, 1.59613e-06
4, 29, 23.928, 71.9171, -2.53741e-13, -4.7826e-13, -2.53741e-13, 1.55007e-06, 8.00257e-13, -4.7826e-13, 8.00257e-13, 1.55007e-06
4, 30, 23.96, 71.9159, 7.82525e-13, 1.46271e-13, 7.82525e-13, 1.50508e-06, 1.54757e-12, 1.46271e-13, 1.54757e-12, 1.50508e-06
4, 31, 23.992, 71.9148, 1.29223e-13, -5.80224e-13, 1.29223e-13, 1.46114e-06, 1.2004e-12, -5.80224e-13, 1.2004e-12, 1.46114e-06
4, 32, 24.024, 71.9136, -3.05747e-13, -5.16261e-13, -3.05747e-13, 1.41821e-06, -1.48412e-13, -5.16261e-13, -1.48412e-13, 1.41821e-06
4, 33, 24.056, 71.9125, -4.81042e-13, -1.14668e-12, -4.81042e-13, 1.37631e-06, -6.82043e-13, -1.14668e-12, -6.82043e-13, 1.37631e-06
4, 34, 24.088, 71.9113, -1.2052e-12, -1.7239e-12, -1.2052e-12, 1.33539e-06, -6.74564e-13, -1.7239e-12, -6.74564e-13, 1.33539e-06
4, 35, 24.12, 71.9102, -8.4485e-13, -6.86588e-13, -8.4485e-13, 1.29544e-06, 2.0344e-13, -6.86588e-13, 2.0344e-13, 1.29544e-06
4, 36, 24.152, 71.909, 1.08699e-13, -3.57944e-13, 1.08699e-13, 1.25644e-06, -5.16842e-13, -3.57944e-13, -5.16842e-13, 1.25644e-06
4, 37, 24.184, 71.9079, -3.88576e-13, -9.0165e-13, -3.88576e-13, 1.21839e-06, -4.65996e-14, -9.0165e-13, -4.65996e-14, 1.21838e-06
4, 38, 24.216, 71.9067, 1.00656e-12, 2.37439e-13, 1.00656e-12, 1.18126e-06, 1.37425e-13, 2.37439e-13, 1.37425e-13, 1.18126e-06
4, 39, 24.248, 71.9056, 7.66832e-13, 6.76025e-13, 7.66832e-13, 1.14503e-06, -1.31068e-12, 6.76025e-13, -1.31068e-12, 1.14503e-06
4, 40, 24.28, 71.9044, 1.23072e-12, 7.40157e-13, 1.23072e-12, 1.10968e-06, -9.65901e-14, 7.40157e-13, -9.65901e-14, 1.10968e-06
4, 41, 24.312, 71.9033, 9.45218e-13, 1.19157e-12, 9.45218e-13, 1.07522e-06, -1.69823e-12, 1.19157e-12, -1.69823e-12, 1.07522e-06
4, 42, 24.344, 71.9021, 8.92627e-15, -3.32871e-14, 8.92627e-15, 1.04162e-06, 6.72686e-13, -3.32871e-14, 6.72686e-13, 1.04162e-06
4, 43, 24.376, 71.901, 1.26735e-12, 8.68991e-13, 1.26735e-12, 1.00884e-06, -4.90912e-13, 8.68991e-13, -4.90912e-13, 1.00883e-06
4, 44, 24.408, 71.8998, 1.06211e-12, 4.68313e-13, 1.06211e-12, 9.76902e-07, 5.63902e-14, 4.68313e-13, 5.63902e-14, 9.76902e-07
4, 45, 24.44, 71.8987, 5.15351e-13, 3.63047e-13, 5.15351e-13, 9.45789e-07, 4.34123e-14, 3.63047e-13, 4.34123e-14, 9.45789e-07
4, 46, 24.472, 71.8975, 1.03463e-12, 6.86132e-13, 1.03463e-12, 9.15444e-07, -1.66781e-12, 6.86132e-13, -1.66781e-12, 9.15444e-07
4, 47, 24.504, 71.8964, 1.74529e-12, 1.32276e-12, 1.74529e-12, 8.85888e-07, -1.15369e-12, 1.32276e-12, -1.15369e-12, 8.85887e-07
4, 48, 24.536, 71.8953, 1.60404e-12, 1.17783e-12, 1.60404e-12, 8.57111e-07, -2.88172e-12, 1.17783e-12, -2.88172e-12, 8.57109e-07
4, 49, 24.568, 71.8941, 6.39011e-13, 3.77973e-13, 6.39011e-13, 8.29084e-07, -1.76938e-12, 3.77973e-13, -1.76938e-12, 8.29082e-07
4, 50, 24.6, 71.893, 1.15188e-12, 1.18029e-12, 1.15188e-12, 8.01773e-07, -1.19057e-12, 1.18029e-12, -1.19057e-12, 8.01773e-07
5, 1, 24.632, 57.5292, 5.0388e-13, 3.24442e-13, 5.0388e-13, 8.5002e-07, -1.46995e-12, 3.24442e-13, -1.46995e-12, 8.5002e-07
5, 2, 24.664, 49.5747, -1.15362e-13, -6.52617e-14, -1.15362e-13, 1.19956e-07, -8.5743e-13, -6.52617e-14, -8.5743e-13, 1.19955e-07
5, 3, 24.696, 42.2187, 1.46288e-13, -8.7182e-14, 1.46288e-13, 5.38465e-08, -1.79095e-12, -8.7182e-14, -1.79095e-12, 5.38475e-08
5, 4, 24.728, 35.002, 9.36638e-13, 6.34413e-13, 9.36638e-13, 3.85704e-08, -4.99933e-13, 6.34413e-13, -4.99933e-13, 3.85695e-08
5, 5, 24.76, 27.8147, 9.20778e-13, 9.96946e-13, 9.20778e-13, 3.53276e-08, -8.27166e-13, 9.96946e-13, -8.27166e-13, 3.53276e-08
5, 6, 24.792, 20.6322, -2.20858e-13, -4.87217e-13, -2.20858e-13, 3.48169e-08, -1.49609e-12, -4.87217e-13, -1.49609e-12, 3.48169e-08
5, 7, 24.824, 13.45, 1.10639e-13, 3.40861e-13, 1.10639e-13, 3.47638e-08, -1.07945e-13, 3.40861e-13, -1.07945e-13, 3.47648e-08
5, 8, 24.856, 6.26768, 9.70225e-13, 6.81313e-13, 9.70225e-13, 3.478e-08, -1.18199e-12, 6.81313e-13, -1.18199e-12, 3.47791e-08
5, 9, 24.888, -0.914788, -2.58916e-13, -4.00369e-13, -2.58916e-13, 3.47722e-08, -1.30422e-12, -4.00369e-13, -1.30422e-12, 3.47741e-08
5, 10, 24.92, -8.09742, -5.56996e-13, -5.81538e-13, -5.56996e-13, 3.4778e-08, -1.96006e-12, -5.81538e-13, -1.96006e-12, 3.47724e-08
5, 11, 24.952, -15.2802, 1.24968e-12, 9.809e-13, 1.24968e-12, 3.47997e-08, -9.47719e-13, 9.809e-13, -9.47719e-13, 3.48016e-08
5, 12, 24.984, -22.4631, 9.32514e-13, 8.4118e-13, 9.32514e-13, 3.47948e-08, -4.06984e-14, 8.4118e-13, -4.06984e-14, 3.47929e-08
5, 13, 25.016, -29.6462, -1.27251e-13, 6.33469e-14, -1.27251e-13, 3.47932e-08, -2.30185e-12, 6.33469e-14, -2.30185e-12, 3.47951e-08
5, 14, 25.048, -36.8284, 8.62703e-13, 1.10564e-12, 8.62703e-13, 3.46955e-08, -9.56065e-13, 1.10564e-12, -9.56065e-13, 3.46936e-08
5, 15, 25.08, -44.0029, 3.11147e-13, 5.83267e-13, 3.11147e-13, 3.38533e-08, -2.23568e-12, 5.83267e-13, -2.23568e-12, 3.3857e-08
5, 16, 25.112, -51.1336, 1.9406e-12, 1.76105e-12, 1.9406e-12, 2.90849e-08, -3.40367e-13, 1.76105e-12, -3.40367e-13, 2.90849e-08
5, 17, 25.144, -58.08, 7.36524e-13, 1.22807e-12, 7.36524e-13, 8.95622e-09, -9.85556e-13, 1.22807e-12, -9.85556e-13, 8.95434e-09
5, 18, 25.176, -64.4155, 9.93185e-13, 9.23652e-13, 9.93185e-13, -5.77463e-08, 2.24949e-13, 9.23652e-13, 2.24949e-13, -5.77444e-08
5, 19, 25.208, -69.2108, 3.89288e-13, 7.07317e-13, 3.89288e-13, -2.26905e-07, -2.35112e-12, 7.07317e-13, -2.35112e-12, -2.26903e-07
5, 20, 25.24, -71.4975, 1.00335e-12, 1.51068e-12, 1.00335e-12, -5.07759e-07, -8.37295e-13, 1.51068e-12, -8.37295e-13, -5.07759e-07
5, 21, 25.272, -71.9038, 2.63406e-13, 2.89722e-13, 2.63406e-13, -7.33189e-07, -1.27265e-12, 2.89722e-13, -1.27265e-12, -7.33189e-07
5, 22, 25.304, -71.9159, -2.14816e-13, -1.95978e-13, -2.14816e-13, -8.03243e-07, -5.88243e-13, -1.95978e-13, -5.88243e-13, -8.03244e-07
5, 23, 25.336, -71.9171, 5.72704e-13, 5.85082e-14, 5.72704e-13, -8.31939e-07, 4.91725e-13, 5.85082e-14, 4.91725e-13, -8.31939e-07
5, 24, 25.368, -71.9182, -5.90667e-13, -1.15478e-12, -5.90667e-13, -8.60117e-07, -1.90302e-12, -1.15478e-12, -1.90302e-12, -8.60115e-07
5, 25, 25.4, -71.9194, 5.07718e-14, -8.20375e-13, 5.07718e-14, -8.89036e-07, -5.75659e-14, -8.20375e-13, -5.75659e-14, -8.89036e-07
5, 26, 25.432, -71.9205, -2.55291e-13, -1.25771e-12, -2.55291e-13, -9.18725e-07, -7.60086e-13, -1.25771e-12, -7.60086e-13, -9.18723e-07
5, 27, 25.464, -71.9217, 6.5244e-13, -2.46018e-13, 6.5244e-13, -9.49193e-07, -1.95442e-13, -2.46018e-13, -1.95442e-13, -9.49196e-07
5, 28, 25.496, -71.9228, 2.98126e-13, 5.19853e-14, 2.98126e-13, -9.80477e-07, 2.28572e-13, 5.19853e-14, 2.28572e-13, -9.80477e-07
5, 29, 25.528, -71.924, -9.49196e-13, -1.25311e-12, -9.49196e-13, -1.01257e-06, -8.80881e-13, -1.25311e-12, -8.80881e-13, -1.01257e-06
5, 30, 25.56, -71.9251, -4.19197e-13, 5.30475e-14, -4.19197e-13, -1.04549e-06, 2.396e-14, 5.30475e-14, 2.396e-14, -1.04549e-06
5, 31, 25.592, -71.9263, 2.7749e-13, 9.92361e-13, 2.7749e-13, -1.07928e-06, -1.80385e-12, 9.92361e-13, -1.80385e-12, -1.07928e-06
5, 32, 25.624, -71.9274, 1.07594e-12, 5.83616e-13, 1.07594e-12, -1.1139e-06, -9.15477e-13, 5.83616e-13, -9.15477e-13, -1.1139e-06
5, 33, 25.656, -71.9286, 9.71501e-13, 1.69969e-12, 9.71501e-13, -1.1494e-06, 3.78429e-13, 1.69969e-12, 3.78429e-13, -1.1494e-06
5, 34, 25.688, -71.9297, 8.64758e-13, 1.72791e-12, 8.64758e-13, -1.18583e-06, 1.83157e-13, 1.72791e-12, 1.83157e-13, -1.18582e-06
5, 35, 25.72, -71.9309, 1.43504e-12, 1.89001e-12, 1.43504e-12, -1.22314e-06, -4.79312e-13, 1.89001e-12, -4.79312e-13, -1.22315e-06
5, 36, 25.752, -71.932, 9.30736e-13, 8.20512e-13, 9.30736e-13, -1.26138e-06, -5.73592e-13, 8.20512e-13, -5.73592e-13, -1.26138e-06
5, 37, 25.784, -71.9332, 1.71942e-12, 2.02888e-12, 1.71942e-12, -1.30058e-06, 8.59546e-13, 2.02888e-12, 8.59546e-13, -1.30058e-06
5, 38, 25.816, -71.9343, -1.13347e-12, -5.34176e-13, -1.13347e-12, -1.34073e-06, 1.13407e-12, -5.34176e-13, 1.13407e-12, -1.34074e-06
5, 39, 25.848, -71.9355, -1.02223e-12, -7.56183e-14, -1.02223e-12, -1.38187e-06, -3.78529e-13, -7.56183e-14, -3.78529e-13, -1.38187e-06
5, 40, 25.88, -71.9367, -2.89967e-13, 4.4386e-13, -2.89967e-13, -1.42397e-06, -1.61627e-13, 4.4386e-13, -1.61627e-13, -1.42397e-06
5, 41, 25.912, -71.9378, -8.48444e-13, 8.24842e-14, -8.48444e-13, -1.46714e-06, -6.70004e-13, 8.24842e-14, -6.70004e-13, -1.46714e-06
5, 42, 25.944, -71.939, -2.62648e-13, 5.56709e-13, -2.62648e-13, -1.51129e-06, 1.85022e-12, 5.56709e-13, 1.85022e-12, -1.51129e-06
5, 43, 25.976, -71.9401, -9.8187e-13, 3.22911e-13, -9.8187e-13, -1.55653e-06, -2.11604e-13, 3.22911e-13, -2.11604e-13, -1.55653e-06
5, 44, 26.008, -71.9413, 1.29808e-12, 1.72415e-12, 1.29808e-12, -1.60282e-06, 2.09776e-12, 1.72415e-12, 2.09776e-12, -1.60281e-06
5, 45, 26.04, -71.9424, -7.21441e-13, -6.22562e-13, -7.21441e-13, -1.6502e-06, 1.54782e-12, -6.22562e-13, 1.54782e-12, -1.65019e-06
5, 46, 26.072, -71.9436, -8.02111e-14, -3.044e-13, -8.02111e-14, -1.69865e-06, 1.67601e-12, -3.044e-13, 1.67601e-12, -1.69865e-06
5, 47, 26.104, -71.9447, 2.82881e-15, 1.05938e-12, 2.82881e-15, -1.74826e-06, 1.46056e-12, 1.05938e-12, 1.46056e-12, -1.74826e-06
5, 48, 26.136, -71.9459, 7.91908e-14, 2.7489e-13, 7.91908e-14, -1.79899e-06, 2.68047e-12, 2.7489e-13, 2.68047e-12, -1.79899e-06
5, 49, 26.168, -71.947, 1.43259e-12, 2.02072e-12, 1.43259e-12, -1.85089e-06, 2.6216e-12, 2.02072e-12, 2.6216e-12, -1.85089e-06
5, 50, 26.2, -71.9482, 6.53769e-13, 6.5427e-13, 6.53769e-13, -1.90395e-06, 8.32117e-13, 6.5427e-13, 8.32117e-13, -1.90395e-06
6, 1, 26.2128, -61.8401, 8.83699e-13, 3.77838e-13, 8.83699e-13, -9.7043e-07, 9.73295e-13, 3.77838e-13, 9.73295e-13, -9.70428e-07
6, 2, 26.2256, -53.9844, 5.85948e-13, 6.42075e-13, 5.85948e-13, -3.22849e-07, 1.46767e-12, 6.42075e-13, 1.46767e-12, -3.22849e-07
6, 3, 26.2384, -46.6009, 8.16383e-13, 1.02053e-12, 8.16383e-13, -1.85469e-07, 1.97702e-12, 1.02053e-12, 1.97702e-12, -1.85471e-07
6, 4, 26.2512, -39.3434, 1.26411e-12, 1.4609e-12, 1.26411e-12, -1.48681e-07, 2.02551e-12, 1.4609e-12, 2.02551e-12, -1.48682e-07
6, 5, 26.264, -32.1166, -6.44743e-14, 5.46873e-15, -6.44743e-14, -1.397e-07, 1.6462e-12, 5.46873e-15, 1.6462e-12, -1.39701e-07
6, 6, 26.2768, -24.8961, 3.60513e-14, 6.43102e-13, 3.60513e-14, -1.37932e-07, 1.72103e-12, 6.43102e-13, 1.72103e-12, -1.37932e-07
6, 7, 26.2896, -17.6765, 2.63166e-13, 7.83351e-13, 2.63166e-13, -1.37673e-07, 1.88311e-12, 7.83351e-13, 1.88311e-12, -1.37671e-07
6, 8, 26.3024, -10.4572, 1.4265e-13, 3.42922e-13, 1.4265e-13, -1.37637e-07, 1.69969e-12, 3.42922e-13, 1.69969e-12, -1.37635e-07
6, 9, 26.3152, -3.23799, 1.75136e-13, 8.30666e-13, 1.75136e-13, -1.37621e-07, 1.17557e-12, 8.30666e-13, 1.17557e-12, -1.37619e-07
6, 10, 26.328, 3.98103, -1.59915e-13, -1.01529e-13, -1.59915e-13, -1.3759e-07, 4.40737e-13, -1.01529e-13, 4.40737e-13, -1.3759e-07
6, 11, 26.3408, 11.1999, 1.90729e-13, 4.75502e-13, 1.90729e-13, -1.37569e-07, 8.56059e-13, 4.75502e-13, 8.56059e-13, -1.37569e-07
6, 12, 26.3536, 18.4186, 5.23783e-14, 3.09404e-13, 5.23783e-14, -1.37547e-07, 1.54364e-12, 3.09404e-13, 1.54364e-12, -1.37549e-07
6, 13, 26.3664, 25.6371, 1.08529e-13, -4.1375e-13, 1.08529e-13, -1.37522e-07, 1.08875e-12, -4.1375e-13, 1.08875e-12, -1.37522e-07
6, 14, 26.3792, 32.8554, 3.51462e-13, 1.13235e-12, 3.51462e-13, -1.3749e-07, 1.27525e-12, 1.13235e-12, 1.27525e-12, -1.37492e-07
6, 15, 26.392, 40.0725, -2.37332e-14, 1.29144e-13, -2.37332e-14, -1.37165e-07, 1.38293e-12, 1.29144e-13, 1.38293e-12, -1.37165e-07
6, 16, 26.4048, 47.2823, -1.6735e-13, -1.62383e-13, -1.6735e-13, -1.35027e-07, 1.01772e-12, -1.62383e-13, 1.01772e-12, -1.35027e-07
6, 17, 26.4176, 54.4567, 2.79068e-13, 2.55224e-13, 2.79068e-13, -1.24678e-07, 5.33658e-13, 2.55224e-13, 5.33658e-13, -1.24676e-07
6, 18, 26.4304, 61.4958, -4.92168e-14, 1.42521e-14, -4.92168e-14, -8.49785e-08, 1.65333e-12, 1.42521e-14, 1.65333e-12, -8.49766e-08
6, 19, 26.4432, 68.1109, 2.67292e-13, 4.24426e-13, 2.67292e-13, 3.9379e-08, 1.52712e-12, 4.24426e-13, 1.52712e-12, 3.93828e-08
6, 20, 26.456, 73.6544, 9.7959e-14, 3.61186e-13, 9.7959e-14, 3.52685e-07, 1.6193e-12, 3.61186e-13, 1.6193e-12, 3.52691e-07
6, 21, 26.4688, 77.2107, -1.01478e-12, -6.41332e-13, -1.01478e-12, 9.27921e-07, 1.5007e-12, -6.41332e-13, 1.5007e-12, 9.27923e-07
6, 22, 26.4816, 78.5608, -2.61083e-14, 1.29481e-13, -2.61083e-14, 1.54683e-06, 1.34244e-12, 1.29481e-13, 1.34244e-12, 1.54683e-06
6, 23, 26.4944, 78.7996, 1.21076e-12, 1.45476e-12, 1.21076e-12, 1.82281e-06, 1.69604e-12, 1.45476e-12, 1.69604e-12, 1.82281e-06
6, 24, 26.5072, 78.8223, 6.14509e-13, 1.07525e-12, 6.14509e-13, 1.83237e-06, -7.17639e-13, 1.07525e-12, -7.17639e-13, 1.83237e-06
6, 25, 26.52, 78.8231, 2.95613e-12, 2.99159e-12, 2.95613e-12, 1.78695e-06, -6.29613e-13, 2.99159e-12, -6.29613e-13, 1.78695e-06
6, 26, 26.5328, 78.822, 1.42331e-12, 2.54983e-12, 1.42331e-12, 1.73708e-06, 1.57514e-13, 2.54983e-12, 1.57514e-13, 1.73708e-06
6, 27, 26.5456, 78.8207, -1.89324e-13, 7.19787e-13, -1.89324e-13, 1.68789e-06, 6.59651e-13, 7.19787e-13, 6.59651e-13, 1.68789e-06
6, 28, 26.5584, 78.8195, 2.73031e-13, 7.66896e-13, 2.73031e-13, 1.63976e-06, -6.46511e-13, 7.66896e-13, -6.46511e-13, 1.63975e-06
6, 29, 26.5712, 78.8182, 2.22925e-12, 2.62422e-12, 2.22925e-12, 1.59271e-06, 4.04277e-13, 2.62422e-12, 4.04277e-13, 1.59271e-06
6, 30, 26.584, 78.817, 2.22221e-12, 2.53025e-12, 2.22221e-12, 1.54675e-06, 3.44014e-13, 2.53025e-12, 3.44014e-13, 1.54675e-06
6, 31, 26.5968, 78.8157, 1.2843e-12, 1.5866e-12, 1.2843e-12, 1.50185e-06, 1.56247e-13, 1.5866e-12, 1.56247e-13, 1.50185e-06
6, 32, 26.6096, 78.8144, 3.45337e-13, 1.06186e-12, 3.45337e-13, 1.45798e-06, 3.13416e-13, 1.06186e-12, 3.13416e-13, 1.45798e-06
6, 33, 26.6224, 78.8132, 2.34188e-12, 2.45402e-12, 2.34188e-12, 1.41515e-06, 1.29442e-12, 2.45402e-12, 1.29442e-12, 1.41515e-06
6, 34, 26.6352, 78.8119, 1.56202e-12, 2.20522e-12, 1.56202e-12, 1.3733e-06, -1.0692e-12, 2.20522e-12, -1.0692e-12, 1.37331e-06
6, 35, 26.648, 78.8107, 2.03597e-12, 2.44013e-12, 2.03597e-12, 1.33247e-06, -9.12915e-13, 2.44013e-12, -9.12915e-13, 1.33247e-06
6, 36, 26.6608, 78.8094, 2.6236e-12, 2.73877e-12, 2.6236e-12, 1.29259e-06, 1.39751e-12, 2.73877e-12, 1.39751e-12, 1.29258e-06
6, 37, 26.6736, 78.8081, 1.31485e-12, 2.3966e-12, 1.31485e-12, 1.25366e-06, 5.15651e-13, 2.3966e-12, 5.15651e-13, 1.25366e-06
6, 38, 26.6864, 78.8069, 1.46644e-12, 2.87893e-12, 1.46644e-12, 1.21569e-06, 2.4346e-13, 2.87893e-12, 2.4346e-13, 1.21569e-06
6, 39, 26.6992, 78.8056, 7.6861e-13, 1.44705e-12, 7.6861e-13, 1.1786e-06, 1.55792e-12, 1.44705e-12, 1.55792e-12, 1.1786e-06
6, 40, 26.712, 78.8044, 7.99544e-13, 1.47594e-12, 7.99544e-13, 1.14245e-06, 3.36501e-13, 1.47594e-12, 3.36501e-13, 1.14245e-06
6, 41, 26.7248, 78.8031, 1.46857e-12, 2.03133e-12, 1.46857e-12, 1.10718e-06, 9.90356e-13, 2.03133e-12, 9.90356e-13, 1.10718e-06
6, 42, 26.7376, 78.8019, 9.71602e-13, 1.55687e-12, 9.71602e-13, 1.07279e-06, 3.08852e-13, 1.55687e-12, 3.08852e-13, 1.07279e-06
6, 43, 26.7504, 78.8006, 1.52244e-12, 2.63809e-12, 1.52244e-12, 1.03925e-06, 3.84642e-13, 2.63809e-12, 3.84642e-13, 1.03925e-06
6, 44, 26.7632, 78.7993, 1.62608e-12, 1.7757e-12, 1.62608e-12, 1.00655e-06, 8.82222e-14, 1.7757e-12, 8.82222e-14, 1.00655e-06
6, 45, 26.776, 78.7981, 1.05889e-12, 2.03283e-12, 1.05889e-12, 9.74664e-07, 5.57568e-13, 2.03283e-12, 5.57568e-13, 9.74662e-07
6, 46, 26.7888, 78.7968, 1.55102e-12, 2.61659e-12, 1.55102e-12, 9.43609e-07, 1.10757e-12, 2.61659e-12, 1.10757e-12, 9.43609e-07
6, 47, 26.8016, 78.7956, 1.73678e-12, 2.42653e-12, 1.73678e-12, 9.13321e-07, -2.75045e-13, 2.42653e-12, -2.75045e-13, 9.1332e-07
6, 48, 26.8144, 78.7943, 1.63143e-12, 1.09811e-12, 1.63143e-12, 8.83833e-07, 5.42692e-13, 1.09811e-12, 5.42692e-13, 8.83835e-07
6, 49, 26.8272, 78.7931, 1.99153e-12, 1.54273e-12, 1.99153e-12, 8.55099e-07, -5.90479e-13, 1.54273e-12, -5.90479e-13, 8.551e-07
6, 50, 26.84, 78.7918, 1.60855e-12, 1.67408e-12, 1.60855e-12, 8.27124e-07, -4.29877e-13, 1.67408e-12, -4.29877e-13, 8.27125e-07
7, 1, 26.8528, 64.4261, 1.0392e-12, 8.74978e-13, 1.0392e-12, 8.78124e-07, -5.04985e-13, 8.74978e-13, -5.04985e-13, 8.78125e-07
7, 2, 26.8656, 56.2842, 1.69839e-12, 1.42404e-12, 1.69839e-12, 1.45417e-07, -8.69668e-13, 1.42404e-12, -8.69668e-13, 1.45416e-07
7, 3, 26.8784, 48.8532, 1.84655e-12, 1.57191e-12, 1.84655e-12, 6.43398e-08, -8.64681e-13, 1.57191e-12, -8.64681e-13, 6.43407e-08
7, 4, 26.8912, 41.6104, 1.6669e-12, 1.00741e-12, 1.6669e-12, 4.30892e-08, 7.48012e-14, 1.00741e-12, 7.48012e-14, 4.30902e-08
7, 5, 26.904, 34.4155, 1.63784e-12, 1.27486e-12, 1.63784e-12, 3.76656e-08, -1.09103e-12, 1.27486e-12, -1.09103e-12, 3.76656e-08
7, 6, 26.9168, 27.2308, 2.24402e-12, 2.12919e-12, 2.24402e-12, 3.6507e-08, -1.37434e-12, 2.12919e-12, -1.37434e-12, 3.6507e-08
7, 7, 26.9296, 20.0475, 1.60041e-12, 1.07415e-12, 1.60041e-12, 3.6326e-08, -1.92225e-13, 1.07415e-12, -1.92225e-13, 3.63241e-08
7, 8, 26.9424, 12.8643, 1.5573e-12, 1.8109e-12, 1.5573e-12, 3.63168e-08, -9.33839e-13, 1.8109e-12, -9.33839e-13, 3.63149e-08
7, 9, 26.9552, 5.68089, 1.44536e-12, 1.21206e-12, 1.44536e-12, 3.63326e-08, -8.72457e-13, 1.21206e-12, -8.72457e-13, 3.63326e-08
7, 10, 26.968, -1.50265, 1.84819e-12, 1.77898e-12, 1.84819e-12, 3.63404e-08, 1.93086e-13, 1.77898e-12, 1.93086e-13, 3.63414e-08
7, 11, 26.9808, -8.68634, 1.50961e-12, 1.63384e-12, 1.50961e-12, 3.6349e-08, -1.19586e-12, 1.63384e-12, -1.19586e-12, 3.63509e-08
7, 12, 26.9936, -15.8702, 1.70809e-12, 1.04236e-12, 1.70809e-12, 3.63573e-08, -3.59412e-13, 1.04236e-12, -3.59412e-13, 3.63573e-08
7, 13, 27.0064, -23.0542, 1.91857e-12, 1.28776e-12, 1.91857e-12, 3.63668e-08, 1.44901e-13, 1.28776e-12, 1.44901e-13, 3.63686e-08
7, 14, 27.0192, -30.2383, 6.68773e-13, 4.60606e-13, 6.68773e-13, 3.63639e-08, -3.76514e-14, 4.60606e-13, -3.76514e-14, 3.63639e-08
7, 15, 27.032, -37.4222, 1.16316e-12, 1.28084e-12, 1.16316e-12, 3.63182e-08, -4.28396e-13, 1.28084e-12, -4.28396e-13, 3.632e-08
7, 16, 27.0448, -44.6025, 2.17857e-12, 2.11934e-12, 2.17857e-12, 3.59162e-08, -6.40295e-13, 2.11934e-12, -6.40295e-13, 3.59162e-08
7, 17, 27.0576, -51.7629, 1.79716e-12, 1.40803e-12, 1.79716e-12, 3.36845e-08, -1.28937e-12, 1.40803e-12, -1.28937e-12, 3.36845e-08
7, 18, 27.0704, -58.8404, 2.26728e-12, 1.49407e-12, 2.26728e-12, 2.43485e-08, -8.44213e-13, 1.49407e-12, -8.44213e-13, 2.43522e-08
7, 19, 27.0832, -65.6389, 1.80519e-12, 1.51023e-12, 1.80519e-12, -7.05127e-09, -6.75802e-13, 1.51023e-12, -6.75802e-13, -7.05315e-09
7, 20, 27.096, -71.6708, 1.4591e-12, 1.76499e-12, 1.4591e-12, -9.35345e-08, -1.4538e-12, 1.76499e-12, -1.4538e-12, -9.35383e-08
7, 21, 27.1088, -76.0784, 1.44632e-12, 7.85748e-13, 1.44632e-12, -2.78225e-07, 1.19072e-12, 7.85748e-13, 1.19072e-12, -2.78226e-07
7, 22, 27.1216, -78.2191, 2.34607e-12, 2.01604e-12, 2.34607e-12, -5.42351e-07, -1.39026e-12, 2.01604e-12, -1.39026e-12, -5.42352e-07
7, 23, 27.1344, -78.7471, 1.12955e-12, 1.42737e-12, 1.12955e-12, -7.45145e-07, -1.54546e-13, 1.42737e-12, -1.54546e-13, -7.45144e-07
7, 24, 27.1472, -78.8127, 3.26438e-12, 3.03846e-12, 3.26438e-12, -8.24865e-07, -5.17927e-13, 3.03846e-12, -5.17927e-13, -8.24868e-07
7, 25, 27.16, -78.8199, 8.83488e-13, 1.12568e-12, 8.83488e-13, -8.59918e-07, 1.34242e-13, 1.12568e-12, 1.34242e-13, -8.59916e-07
7, 26, 27.1728, -78.8217, 1.50608e-12, 2.00813e-12, 1.50608e-12, -8.89516e-07, 8.72104e-13, 2.00813e-12, 8.72104e-13, -8.89517e-07
7, 27, 27.1856, -78.823, 3.05287e-12, 2.24962e-12, 3.05287e-12, -9.19268e-07, -1.00926e-12, 2.24962e-12, -1.00926e-12, -9.19266e-07
7, 28, 27.1984, -78.8243, 3.45997e-12, 2.93826e-12, 3.45997e-12, -9.49777e-07, -1.00478e-12, 2.93826e-12, -1.00478e-12, -9.49777e-07
7, 29, 27.2112, -78.8255, 1.95584e-12, 2.63435e-12, 1.95584e-12, -9.81068e-07, -1.39771e-12, 2.63435e-12, -1.39771e-12, -9.81069e-07
7, 30, 27.224, -78.8268, 1.75794e-12, 8.84498e-13, 1.75794e-12, -1.01319e-06, -2.31279e-12, 8.84498e-13, -2.31279e-12, -1.01319e-06
7, 31, 27.2368, -78.8281, 2.73338e-12, 2.83174e-12, 2.73338e-12, -1.04614e-06, -1.3829e-12, 2.83174e-12, -1.3829e-12, -1.04615e-06
7, 32, 27.2496, -78.8293, 1.03379e-12, 1.21389e-12, 1.03379e-12, -1.07992e-06, -2.33406e-12, 1.21389e-12, -2.33406e-12, -1.07992e-06
7, 33, 27.2624, -78.8306, 7.87758e-13, 9.27168e-13, 7.87758e-13, -1.11459e-06, -3.27204e-12, 9.27168e-13, -3.27204e-12, -1.11459e-06
7, 34, 27.2752, -78.8319, 1.52072e-12, 1.73666e-12, 1.52072e-12, -1.15012e-06, -2.0259e-12, 1.73666e-12, -2.0259e-12, -1.15012e-06
7, 35, 27.288, -78.8331, 1.8347e-12, 1.1655e-12, 1.8347e-12, -1.18656e-06, -9.2431e-13, 1.1655e-12, -9.2431e-13, -1.18655e-06
7, 36, 27.3008, -78.8344, 1.67502e-12, 1.8804e-12, 1.67502e-12, -1.2239e-06, -1.68238e-12, 1.8804e-12, -1.68238e-12, -1.22389e-06
7, 37, 27.3136, -78.8357, 1.60086e-12, 1.71625e-12, 1.60086e-12, -1.26216e-06, -1.87452e-12, 1.71625e-12, -1.87452e-12, -1.26215e-06
7, 38, 27.3264, -78.8369, 6.86314e-13, 6.40982e-13, 6.86314e-13, -1.30138e-06, 9.4794e-13, 6.40982e-13, 9.4794e-13, -1.30138e-06
7, 39, 27.3392, -78.8382, 7.12953e-13, 1.76275e-12, 7.12953e-13, -1.34156e-06, 4.07258e-14, 1.76275e-12, 4.07258e-14, -1.34156e-06
7, 40, 27.352, -78.8394, 1.32271e-12, 1.82214e-12, 1.32271e-12, -1.38271e-06, 8.25653e-13, 1.82214e-12, 8.25653e-13, -1.38271e-06
7, 41, 27.3648, -78.8407, 4.10319e-13, 8.31329e-13, 4.10319e-13, -1.42486e-06, 1.78472e-12, 8.31329e-13, 1.78472e-12, -1.42486e-06
7, 42, 27.3776, -78.842, 1.64456e-12, 1.85407e-12, 1.64456e-12, -1.46802e-06, 2.65159e-12, 1.85407e-12, 2.65159e-12, -1.46802e-06
7, 43, 27.3904, -78.8432, 1.89135e-12, 2.85641e-12, 1.89135e-12, -1.51223e-06, 1.43565e-12, 2.85641e-12, 1.43565e-12, -1.51223e-06
7, 44, 27.4032, -78.8445, 1.05991e-12, 9.17937e-13, 1.05991e-12, -1.55747e-06, 2.27231e-12, 9.17937e-13, 2.27231e-12, -1.55747e-06
7, 45, 27.416, -78.8458, 1.65416e-12, 1.99753e-12, 1.65416e-12, -1.6038e-06, 5.78563e-13, 1.99753e-12, 5.78563e-13, -1.6038e-06
7, 46, 27.4288, -78.847, 9.22616e-13, 1.89336e-12, 9.22616e-13, -1.65118e-06, -8.85861e-13, 1.89336e-12, -8.85861e-13, -1.65119e-06
7, 47, 27.4416, -78.8483, 2.04114e-12, 1.89876e-12, 2.04114e-12, -1.69971e-06, -1.37715e-12, 1.89876e-12, -1.37715e-12, -1.69971e-06
7, 48, 27.4544, -78.8496, 2.06234e-12, 2.8989e-12, 2.06234e-12, -1.74933e-06, -2.26206e-12, 2.8989e-12, -2.26206e-12, -1.74933e-06
7, 49, 27.4672, -78.8508, 1.2683e-12, 1.07901e-12, 1.2683e-12, -1.8001e-06, -3.39376e-13, 1.07901e-12, -3.39376e-13, -1.8001e-06
7, 50, 27.48, -78.8521, 1.36654e-12, 1.60093e-12, 1.36654e-12, -1.85202e-06, -3.93496e-13, 1.60093e-12, -3.93496e-13, -1.85202e-06
8, 1, 27.4851, -68.7454, 1.45704e-12, 1.26098e-12, 1.45704e-12, -9.42268e-07, -1.32573e-12, 1.26098e-12, -1.32573e-12, -9.42272e-07
8, 2, 27.4902, -60.7935, 8.0595e-13, 1.48003e-12, 8.0595e-13, -3.4037e-07, 4.9152e-13, 1.48003e-12, 4.9152e-13, -3.40368e-07
8, 3, 27.4954, -53.36, 1.97755e-12, 1.53289e-12, 1.97755e-12, -1.93719e-07, -4.30026e-13, 1.53289e-12, -4.30026e-13, -1.93717e-07
8, 4, 27.5005, -46.0828, 1.03712e-12, 9.45178e-13, 1.03712e-12, -1.49329e-07, -3.33855e-13, 9.45178e-13, -3.33855e-13, -1.49329e-07
8, 5, 27.5056, -38.8505, 1.1523e-12, 1.67863e-12, 1.1523e-12, -1.36583e-07, -5.12757e-13, 1.67863e-12, -5.12757e-13, -1.36583e-07
8, 6, 27.5107, -31.6293, -1.99461e-13, 3.24225e-13, -1.99461e-13, -1.33437e-07, -1.32479e-12, 3.24225e-13, -1.32479e-12, -1.33435e-07
8, 7, 27.5158, -24.4104, 1.68574e-13, 8.71957e-13, 1.68574e-13, -1.32816e-07, 2.73311e-13, 8.71957e-13, 2.73311e-13, -1.32816e-07
8, 8, 27.521, -17.192, 1.5572e-12, 1.6073e-12, 1.5572e-12, -1.32694e-07, 9.11827e-13, 1.6073e-12, 9.11827e-13, -1.32692e-07
8, 9, 27.5261, -9.97377, -5.07395e-13, -1.03224e-12, -5.07395e-13, -1.32696e-07, -5.90566e-13, -1.03224e-12, -5.90566e-13, -1.32692e-07
8, 10, 27.5312, -2.75568, 1.22449e-12, 1.40814e-12, 1.22449e-12, -1.32675e-07, -1.58517e-13, 1.40814e-12, -1.58517e-13, -1.32677e-07
8, 11, 27.5363, 4.46225, 1.12905e-12, 1.04553e-12, 1.12905e-12, -1.32644e-07, -5.92873e-13, 1.04553e-12, -5.92873e-13, -1.32642e-07
8, 12, 27.5414, 11.68, 1.3702e-12, 8.96086e-13, 1.3702e-12, -1.32636e-07, -6.37037e-13, 8.96086e-13, -6.37037e-13, -1.32634e-07
8, 13, 27.5466, 18.8976, 1.51349e-12, 1.18653e-12, 1.51349e-12, -1.326e-07, -7.9437e-13, 1.18653e-12, -7.9437e-13, -1.32604e-07
8, 14, 27.5517, 26.1151, 1.5371e-12, 1.0199e-12, 1.5371e-12, -1.32566e-07, -7.07883e-13, 1.0199e-12, -7.07883e-13, -1.32568e-07
8, 15, 27.5568, 33.3323, 1.14216e-12, 1.59937e-12, 1.14216e-12, -1.32561e-07, -5.53384e-13, 1.59937e-12, -5.53384e-13, -1.32559e-07
8, 16, 27.5619, 40.5489, 1.24707e-12, 8.59489e-13, 1.24707e-12, -1.32407e-07, 4.37421e-13, 8.59489e-13, 4.37421e-13, -1.32407e-07
8, 17, 27.567, 47.7622, 1.01349e-12, 1.73099e-12, 1.01349e-12, -1.31456e-07, -7.47813e-13, 1.73099e-12, -7.47813e-13, -1.31458e-07
8, 18, 27.5722, 54.9598, 1.19731e-12, 7.59423e-13, 1.19731e-12, -1.27008e-07, 5.87205e-13, 7.59423e-13, 5.87205e-13, -1.27002e-07
8, 19, 27.5773, 62.0981, 1.42832e-12, 7.18823e-13, 1.42832e-12, -1.1011e-07, -5.84767e-13, 7.18823e-13, -5.84767e-13, -1.1011e-07
8, 20, 27.5824, 69.0489, -6.93394e-13, -6.0782e-13, -6.93394e-13, -5.65741e-08, -1.58221e-12, -6.0782e-13, -1.58221e-12, -5.65703e-08
8, 21, 27.5875, 75.4976, 7.84844e-13, 1.77121e-12, 7.84844e-13, 8.66457e-08, 4.73713e-14, 1.77121e-12, 4.73713e-14, 8.66438e-08
8, 22, 27.5926, 80.8386, 1.42616e-12, 1.45621e-12, 1.42616e-12, 4.01198e-07, 6.3701e-13, 1.45621e-12, 6.3701e-13, 4.012e-07
8, 23, 27.5978, 84.34, 2.2259e-13, 1.24089e-13, 2.2259e-13, 9.17395e-07, 5.48737e-14, 1.24089e-13, 5.48737e-14, 9.17395e-07
8, 24, 27.6029, 85.879, 1.07465e-12, 1.08429e-12, 1.07465e-12, 1.44981e-06, 2.20483e-13, 1.08429e-12, 2.20483e-13, 1.44981e-06
8, 25, 27.608, 86.292, 2.95257e-13, 4.17282e-13, 2.95257e-13, 1.72394e-06, -1.0069e-12, 4.17282e-13, -1.0069e-12, 1.72394e-06
8, 26, 27.6131, 86.3697, 6.22333e-13, 1.25411e-12, 6.22333e-13, 1.76698e-06, -4.08921e-13, 1.25411e-12, -4.08921e-13, 1.76698e-06
8, 27, 27.6182, 86.3817, 1.46389e-12, 9.73056e-13, 1.46389e-12, 1.73457e-06, -6.91373e-14, 9.73056e-13, -6.91373e-14, 1.73457e-06
8, 28, 27.6234, 86.3826, 2.02961e-12, 6.4929e-13, 2.02961e-12, 1.68829e-06, 8.31238e-14, 6.4929e-13, 8.31238e-14, 1.68829e-06
8, 29, 27.6285, 86.3815, 1.30218e-12, 3.78544e-13, 1.30218e-12, 1.6406e-06, 2.9151e-13, 3.78544e-13, 2.9151e-13, 1.6406e-06
8, 30, 27.6336, 86.3802, 1.81369e-12, 1.03637e-12, 1.81369e-12, 1.59363e-06, -9.5416e-13, 1.03637e-12, -9.5416e-13, 1.59363e-06
8, 31, 27.6387, 86.3789, 2.62299e-12, 1.79245e-12, 2.62299e-12, 1.54767e-06, -2.01983e-13, 1.79245e-12, -2.01983e-13, 1.54767e-06
8, 32, 27.6438, 86.3775, 2.12502e-12, 1.02137e-12, 2.12502e-12, 1.50275e-06, -4.82349e-13, 1.02137e-12, -4.82349e-13, 1.50275e-06
8, 33, 27.649, 86.3761, 1.44285e-12, 8.82259e-13, 1.44285e-12, 1.45888e-06, -6.84358e-13, 8.82259e-13, -6.84358e-13, 1.45888e-06
8, 34, 27.6541, 86.3747, 1.35929e-12, 6.3907e-13, 1.35929e-12, 1.41602e-06, 7.57061e-13, 6.3907e-13, 7.57061e-13, 1.41602e-06
8, 35, 27.6592, 86.3733, 1.62734e-12, 1.01362e-12, 1.62734e-12, 1.37417e-06, -1.69855e-12, 1.01362e-12, -1.69855e-12, 1.37417e-06
8, 36, 27.6643, 86.372, 6.08249e-13, 2.95901e-13, 6.08249e-13, 1.33331e-06, -5.59497e-14, 2.95901e-13, -5.59497e-14, 1.33331e-06
8, 37, 27.6694, 86.3706, 1.10303e-12, 5.29432e-13, 1.10303e-12, 1.29341e-06, -1.43205e-12, 5.29432e-13, -1.43205e-12, 1.29341e-06
8, 38, 27.6746, 86.3692, 1.58183e-12, 7.82834e-13, 1.58183e-12, 1.25448e-06, -2.47006e-12, 7.82834e-13, -2.47006e-12, 1.25448e-06
8, 39, 27.6797, 86.3678, 1.97091e-12, 1.02583e-12, 1.97091e-12, 1.21648e-06, -1.40918e-12, 1.02583e-12, -1.40918e-12, 1.21648e-06
8, 40, 27.6848, 86.3664, 1.56554e-12, 1.45924e-12, 1.56554e-12, 1.17939e-06, -2.49727e-12, 1.45924e-12, -2.49727e-12, 1.17939e-06
8, 41, 27.6899, 86.3651, 1.59e-12, 1.69837e-12, 1.59e-12, 1.14323e-06, -2.27786e-12, 1.69837e-12, -2.27786e-12, 1.14323e-06
8, 42, 27.695, 86.3637, 1.67463e-12, 1.40824e-12, 1.67463e-12, 1.10793e-06, -1.62079e-12, 1.40824e-12, -1.62079e-12, 1.10793e-06
8, 43, 27.7002, 86.3623, 9.90388e-13, 1.18578e-12, 9.90388e-13, 1.07352e-06, -1.52292e-12, 1.18578e-12, -1.52292e-12, 1.07351e-06
8, 44, 27.7053, 86.3609, 1.30061e-12, 1.4923e-13, 1.30061e-12, 1.03997e-06, -4.34702e-12, 1.4923e-13, -4.34702e-12, 1.03997e-06
8, 45, 27.7104, 86.3596, 1.64232e-12, 1.67387e-12, 1.64232e-12, 1.00726e-06, -1.25897e-12, 1.67387e-12, -1.25897e-12, 1.00726e-06
8, 46, 27.7155, 86.3582, 6.78764e-13, -1.5847e-13, 6.78764e-13, 9.75372e-07, -2.20973e-12, -1.5847e-13, -2.20973e-12, 9.75373e-07
8, 47, 27.7206, 86.3568, 1.50285e-12, 6.29199e-13, 1.50285e-12, 9.44289e-07, -2.1592e-12, 6.29199e-13, -2.1592e-12, 9.44289e-07
8, 48, 27.7258, 86.3554, -1.10056e-13, -4.90898e-13, -1.10056e-13, 9.14003e-07, -1.76373e-12, -4.90898e-13, -1.76373e-12, 9.14005e-07
8, 49, 27.7309, 86.354, 6.23039e-13, 6.62964e-13, 6.23039e-13, 8.84495e-07, -1.71612e-12, 6.62964e-13, -1.71612e-12, 8.84494e-07
8, 50, 27.736, 86.3527, 7.13013e-13, 1.56006e-13, 7.13013e-13, 8.5575e-07, -2.52653e-12, 1.56006e-13, -2.52653e-12, 8.55753e-07
8, 51, 27.736, 86.3527, 3.72176e-13, 5.39354e-13, 3.72176e-13, -2.08189e-12, -2.09177e-12, 5.39354e-13, -2.09177e-12, -3.02158e-12
