stage, timestep, time, Stress11, Stress12, Stress13, Stress21, Stress22, Stress23, Stress31, Stress32, Stress33
0, 0, 0, 0, 0, 0, 0, 0, 0, 0, 0, 0
0, 1, 0.01, 351.179, 2.01968e-15, -8.85752e-16, 2.01968e-15, -1.14336e-08, 2.90186e-15, -8.85752e-16, 2.90186e-15, -1.14336e-08
0, 2, 0.02, 685.752, -9.39469e-17, 5.1545e-15, -9.39469e-17, -1.13804e-08, -9.13814e-16, 5.1545e-15, -9.13814e-16, -1.13804e-08
0, 3, 0.03, 1005.18, -3.63589e-15, -7.22965e-15, -3.63589e-15, -1.13492e-08, -1.863e-15, -7.22965e-15, -1.863e-15, -1.13492e-08
0, 4, 0.04, 1310.8, 8.28232e-17, -4.19188e-15, 8.28232e-17, -1.13009e-08, 5.99267e-15, -4.19188e-15, 5.99267e-15, -1.13009e-08
0, 5, 0.05, 1603.84, -7.64855e-15, -4.1086e-15, -7.64855e-15, -1.12585e-08, 3.71064e-15, -4.1086e-15, 3.71064e-15, -1.12585e-08
0, 6, 0.06, 1885.4, 7.00154e-16, -1.83943e-15, 7.00154e-16, -1.12109e-08, 2.21951e-15, -1.83943e-15, 2.21951e-15, -1.12109e-08
0, 7, 0.07, 2156.5, 3.56509e-16, -3.0255e-15, 3.56509e-16, -1.11686e-08, 1.97573e-14, -3.0255e-15, 1.97573e-14, -1.11686e-08
0, 8, 0.08, 2418.07, 3.23424e-16, -1.8182e-14, 3.23424e-16, -1.11204e-08, 1.75065e-14, -1.8182e-14, 1.75065e-14, -1.11204e-08
0, 9, 0.09, 2670.96, -1.35428e-14, -1.62198e-14, -1.35428e-14, -1.10727e-08, 1.89208e-14, -1.62198e-14, 1.89208e-14, -1.10754e-08
0, 10, 0.1, 2915.94, -4.52619e-14, -2.31558e-14, -4.52619e-14, -1.10434e-08, 4.87532e-14, -2.31558e-14, 4.87532e-14, -1.10433e-08
0, 11, 0.11, 3153.72, 1.73793e-13, 2.08895e-13, 1.73793e-13, -1.09995e-08, -1.20002e-14, 2.08895e-13, -1.20002e-14, -1.09994e-08
0, 12, 0.12, 3384.94, -4.97243e-15, -1.28447e-14, -4.97243e-15, -1.09474e-08, 6.38015e-14, -1.28447e-14, 6.38015e-14, -1.09473e-08
0, 13, 0.13, 3610.19, -1.14576e-14, 9.13501e-15, -1.14576e-14, -1.09268e-08, 2.26416e-14, 9.13501e-15, 2.26416e-14, -1.09267e-08
0, 14, 0.14, 3830, 1.05161e-14, 3.91937e-14, 1.05161e-14, -1.08872e-08, 3.83802e-14, 3.91937e-14, 3.83802e-14, -1.08798e-08
0, 15, 0.15, 4044.87, -3.71566e-14, -5.22635e-14, -3.71566e-14, -1.085e-08, 8.30979e-15, -5.22635e-14, 8.30979e-15, -1.08503e-08
0, 16, 0.16, 4255.25, 6.85646e-13, 1.24976e-12, 6.85646e-13, -1.08024e-08, 1.00249e-12, 1.24976e-12, 1.00249e-12, -1.07998e-08
0, 17, 0.17, 4461.53, -1.50105e-12, -1.43151e-12, -1.50105e-12, -1.07493e-08, -3.84857e-14, -1.43151e-12, -3.84857e-14, -1.07497e-08
0, 18, 0.18, 4664.11, -1.873e-13, -2.20375e-13, -1.873e-13, -1.07021e-08, 5.12914e-14, -2.20375e-13, 5.12914e-14, -1.07024e-08
0, 19, 0.19, 4863.3, -1.94605e-13, -1.92723e-13, -1.94605e-13, -1.06872e-08, -1.57325e-14, -1.92723e-13, -1.57325e-14, -1.06875e-08
0, 20, 0.2, 5059.43, -2.43355e-13, -2.4154e-13, -2.43355e-13, -1.06279e-08, 1.49172e-14, -2.4154e-13, 1.49172e-14, -1.06281e-08
0, 21, 0.21, 5252.78, -4.91404e-13, -5.09107e-13, -4.91404e-13, -1.05664e-08, -1.94427e-14, -5.09107e-13, -1.94427e-14, -1.05666e-08
0, 22, 0.22, 5443.61, -1.97801e-13, -1.65617e-13, -1.97801e-13, -1.05448e-08, 3.32272e-14, -1.65617e-13, 3.32272e-14, -1.0545e-08
0, 23, 0.23, 5632.15, -2.00668e-14, -1.66546e-13, -2.00668e-14, -1.05297e-08, 3.02668e-14, -1.66546e-13, 3.02668e-14, -1.05299e-08
0, 24, 0.24, 5818.62, -1.36268e-12, -1.00858e-12, -1.36268e-12, -1.04747e-08, 4.10319e-14, -1.00858e-12, 4.10319e-14, -1.04711e-08
0, 25, 0.25, 6003.21, -2.20761e-13, -1.48522e-13, -2.20761e-13, -1.04393e-08, 5.63132e-14, -1.48522e-13, 5.63132e-14, -1.04325e-08
0, 26, 0.26, 6186.11, -2.10608e-13, -1.78193e-13, -2.10608e-13, -1.03814e-08, 1.66179e-14, -1.78193e-13, 1.66179e-14, -1.0382e-08
0, 27, 0.27, 6367.47, 1.69175e-13, 2.13424e-13, 1.69175e-13, -1.03501e-08, -6.68442e-13, 2.13424e-13, -6.68442e-13, -1.03506e-08
0, 28, 0.28, 6547.45, -1.85772e-13, -1.553e-14, -1.85772e-13, -1.0316e-08, 4.72395e-13, -1.553e-14, 4.72395e-13, -1.03237e-08
0, 29, 0.29, 6726.18, 9.70656e-13, 1.11775e-12, 9.70656e-13, -1.02792e-08, 1.85597e-13, 1.11775e-12, 1.85597e-13, -1.02793e-08
0, 30, 0.3, 6903.79, 6.403e-13, 3.37569e-13, 6.403e-13, -1.02389e-08, -2.18263e-12, 3.37569e-13, -2.18263e-12, -1.0239e-08
0, 31, 0.31, 7080.39, -2.35894e-13, -1.89023e-13, -2.35894e-13, -1.02016e-08, -8.73242e-13, -1.89023e-13, -8.73242e-13, -1.02053e-08
0, 32, 0.32, 7256.08, -8.6643e-14, -9.93718e-14, -8.6643e-14, -1.01479e-08, 9.10532e-14, -9.93718e-14, 9.10532e-14, -1.01478e-08
0, 33, 0.33, 7430.96, -1.15272e-13, -8.25313e-14, -1.15272e-13, -1.01402e-08, -1.55526e-12, -8.25313e-14, -1.55526e-12, -1.01419e-08
0, 34, 0.34, 7605.12, -1.60559e-13, -3.23389e-13, -1.60559e-13, -1.00831e-08, 7.37101e-14, -3.23389e-13, 7.37101e-14, -1.00847e-08
0, 35, 0.35, 7778.62, 1.15368e-12, 5.91615e-13, 1.15368e-12, -1.00231e-08, 7.90895e-13, 5.91615e-13, 7.90895e-13, -1.00219e-08
0, 36, 0.36, 7951.55, -1.70625e-13, -2.53004e-14, -1.70625e-13, -1.0005e-08, -7.48597e-14, -2.53004e-14, -7.48597e-14, -9.99779e-09
0, 37, 0.37, 8123.98, -7.82743e-13, -9.1545e-13, -7.82743e-13, -9.98191e-09, -7.47886e-14, -9.1545e-13, -7.47886e-14, -9.98211e-09
0, 38, 0.38, 8295.95, -3.86085e-13, -1.55745e-13, -3.86085e-13, -9.95017e-09, -6.63596e-14, -1.55745e-13, -6.63596e-14, -9.95035e-09
0, 39, 0.39, 8467.52, -2.3276e-13, -3.4e-13, -2.3276e-13, -9.89847e-09, -6.81708e-14, -3.4e-13, -6.81708e-14, -9.90662e-09
0, 40, 0.4, 8638.75, -2.45506e-13, -1.6797e-13, -2.45506e-13, -9.85505e-09, 1.31212e-13, -1.6797e-13, 1.31212e-13, -9.85483e-09
0, 41, 0.41, 8809.68, -5.44192e-13, -2.88464e-13, -5.44192e-13, -9.82593e-09, -3.20622e-13, -2.88464e-13, -3.20622e-13, -9.82773e-09
0, 42, 0.42, 8980.34, 7.86772e-13, -2.45038e-15, 7.86772e-13, -9.79649e-09, -7.44631e-15, -2.45038e-15, -7.44631e-15, -9.79622e-09
0, 43, 0.43, 9150.79, -4.54154e-13, -2.48297e-13, -4.54154e-13, -9.73109e-09, -2.05162e-13, -2.48297e-13, -2.05162e-13, -9.72685e-09
0, 44, 0.44, 9321.05, -2.04845e-13, 1.81713e-13, -2.04845e-13, -9.71553e-09, -1.57316e-13, 1.81713e-13, -1.57316e-13, -9.71549e-09
0, 45, 0.45, 9491.15, -2.08858e-13, -8.89392e-14, -2.08858e-13, -9.68204e-09, 2.66507e-13, -8.89392e-14, 2.66507e-13, -9.68201e-09
0, 46, 0.46, 9661.12, -3.83458e-13, -3.06777e-13, -3.83458e-13, -9.62472e-09, -2.07296e-13, -3.06777e-13, -2.07296e-13, -9.62468e-09
0, 47, 0.47, 9831, 1.022e-14, -3.34917e-14, 1.022e-14, -9.58598e-09, -1.12152e-12, -3.34917e-14, -1.12152e-12, -9.58396e-09
0, 48, 0.48, 10000.8, 1.17515e-12, 7.28848e-14, 1.17515e-12, -9.55038e-09, 2.39321e-13, 7.28848e-14, 2.39321e-13, -9.55045e-09
0, 49, 0.49, 10170.5, -6.35283e-13, -9.78326e-13, -6.35283e-13, -9.5143e-09, 1.17675e-12, -9.78326e-13, 1.17675e-12, -9.51436e-09
0, 50, 0.5, 10340.2, 1.24357e-12, 1.98641e-12, 1.24357e-12, -9.48118e-09, 8.91233e-13, 1.98641e-12, 8.91233e-13, -9.48323e-09
1, 1, 0.52, 9498.38, 9.6115e-13, 3.04906e-13, 9.6115e-13, -3.68116e-08, 9.73555e-14, 3.04906e-13, 9.73555e-14, -3.68175e-08
1, 2, 0.54, 8746.04, 1.19103e-12, 7.75984e-13, 1.19103e-12, -3.70775e-08, 8.36269e-14, 7.75984e-13, 8.36269e-14, -3.70789e-08
1, 3, 0.56, 8066.05, 1.21978e-12, 1.18093e-12, 1.21978e-12, -3.73559e-08, -1.15087e-12, 1.18093e-12, -1.15087e-12, -3.73589e-08
1, 4, 0.58, 7444.49, -6.44338e-13, -8.35294e-13, -6.44338e-13, -3.76635e-08, -6.17959e-13, -8.35294e-13, -6.17959e-13, -3.76627e-08
1, 5, 0.6, 6870.12, -4.45265e-13, 9.84663e-14, -4.45265e-13, -3.79418e-08, 1.10625e-13, 9.84663e-14, 1.10625e-13, -3.79472e-08
1, 6, 0.62, 6333.84, -4.01445e-13, 7.03123e-13, -4.01445e-13, -3.82016e-08, -5.015e-13, 7.03123e-13, -5.015e-13, -3.82005e-08
1, 7, 0.64, 5828.28, -2.27612e-13, 3.73215e-13, -2.27612e-13, -3.84872e-08, -2.92178e-14, 3.73215e-13, -2.92178e-14, -3.8488e-08
1, 8, 0.66, 5347.49, -1.96124e-13, 9.34457e-14, -1.96124e-13, -3.87957e-08, -2.22295e-13, 9.34457e-14, -2.22295e-13, -3.87948e-08
1, 9, 0.68, 4886.63, -5.11447e-13, -6.66393e-13, -5.11447e-13, -3.90806e-08, 5.82676e-13, -6.66393e-13, 5.82676e-13, -3.90798e-08
1, 10, 0.7, 4441.8, 8.81869e-14, 2.39269e-13, 8.81869e-14, -3.93566e-08, -2.08286e-13, 2.39269e-13, -2.08286e-13, -3.9356e-08
1, 11, 0.72, 4009.85, 1.84285e-13, 3.17208e-13, 1.84285e-13, -3.96474e-08, -7.13089e-14, 3.17208e-13, -7.13089e-14, -3.96469e-08
1, 12, 0.74, 3588.2, -2.08004e-14, -1.12068e-13, -2.08004e-14, -3.9986e-08, -4.3748e-14, -1.12068e-13, -4.3748e-14, -3.99819e-08
1, 13, 0.76, 3174.77, 1.37209e-12, 2.37992e-12, 1.37209e-12, -4.02759e-08, 4.4896e-14, 2.37992e-12, 4.4896e-14, -4.0274e-08
1, 14, 0.78, 2767.89, -1.25101e-14, -5.07909e-13, -1.25101e-14, -4.05851e-08, -8.8988e-13, -5.07909e-13, -8.8988e-13, -4.05806e-08
1, 15, 0.8, 2366.17, 1.28805e-14, 1.18623e-13, 1.28805e-14, -4.08951e-08, -5.64452e-14, 1.18623e-13, -5.64452e-14, -4.08956e-08
1, 16, 0.82, 1968.52, -6.21383e-13, -5.01204e-13, -6.21383e-13, -4.12194e-08, -1.13768e-13, -5.01204e-13, -1.13768e-13, -4.12161e-08
1, 17, 0.84, 1574, -7.59371e-14, 1.39615e-13, -7.59371e-14, -4.14808e-08, 1.41348e-13, 1.39615e-13, 1.41348e-13, -4.14815e-08
1, 18, 0.86, 1181.89, -1.19939e-12, -9.85667e-13, -1.19939e-12, -4.1817e-08, 2.90306e-13, -9.85667e-13, 2.90306e-13, -4.18176e-08
1, 19, 0.88, 791.58, -3.67957e-13, -7.68558e-13, -3.67957e-13, -4.21496e-08, -2.36026e-14, -7.68558e-13, -2.36026e-14, -4.21501e-08
1, 20, 0.9, 402.564, -1.27229e-13, -6.73929e-14, -1.27229e-13, -4.24384e-08, 1.43514e-14, -6.73929e-14, 1.43514e-14, -4.24387e-08
1, 21, 0.92, 14.4307, 1.43945e-13, 7.24627e-14, 1.43945e-13, -4.27753e-08, -2.73834e-13, 7.24627e-14, -2.73834e-13, -4.27747e-08
1, 22, 0.94, -373.162, -3.25256e-13, 1.91464e-13, -3.25256e-13, -4.30989e-08, 2.84236e-14, 1.91464e-13, 2.84236e-14, -4.30992e-08
1, 23, 0.96, -760.5, -1.49315e-13, -1.52668e-13, -1.49315e-13, -4.34199e-08, -2.81739e-13, -1.52668e-13, -2.81739e-13, -4.34202e-08
1, 24, 0.98, -1147.83, 1.30762e-13, 3.02064e-13, 1.30762e-13, -4.37442e-08, 1.04363e-13, 3.02064e-13, 1.04363e-13, -4.37444e-08
1, 25, 1, -1535.34, -1.38012e-13, -1.43679e-13, -1.38012e-13, -4.40782e-08, -2.22686e-13, -1.43679e-13, -2.22686e-13, -4.40784e-08
1, 26, 1.02, -1923.23, -1.19211e-13, -1.2114e-13, -1.19211e-13, -4.44181e-08, -1.17373e-13, -1.2114e-13, -1.17373e-13, -4.44183e-08
1, 27, 1.04, -2311.64, -9.24427e-14, -9.65354e-14, -9.24427e-14, -4.47602e-08, 8.78955e-13, -9.65354e-14, 8.78955e-13, -4.47603e-08
1, 28, 1.06, -2700.71, -9.50547e-14, -8.99602e-14, -9.50547e-14, -4.50837e-08, 1.8565e-12, -8.99602e-14, 1.8565e-12, -4.50838e-08
1, 29, 1.08, -3090.56, -4.87912e-14, -7.55467e-14, -4.87912e-14, -4.5423e-08, -1.03407e-13, -7.55467e-14, -1.03407e-13, -4.54231e-08
1, 30, 1.1, -3481.3, -5.07869e-14, -3.97101e-14, -5.07869e-14, -4.57333e-08, -8.42841e-14, -3.97101e-14, -8.42841e-14, -4.57333e-08
1, 31, 1.12, -3873.03, -1.95339e-13, 3.44567e-13, -1.95339e-13, -4.61102e-08, 2.48868e-13, 3.44567e-13, 2.48868e-13, -4.61102e-08
1, 32, 1.14, -4265.85, -8.63621e-14, 1.12653e-14, -8.63621e-14, -4.64333e-08, -2.56671e-14, 1.12653e-14, -2.56671e-14, -4.64333e-08
1, 33, 1.16, -4659.85, -3.52706e-14, -4.21075e-14, -3.52706e-14, -4.67741e-08, -1.41905e-14, -4.21075e-14, -1.41905e-14, -4.67741e-08
1, 34, 1.18, -5055.12, 6.80094e-15, -3.17382e-14, 6.80094e-15, -4.71011e-08, -9.33025e-14, -3.17382e-14, -9.33025e-14, -4.71065e-08
1, 35, 1.2, -5451.75, -5.94798e-14, -2.6766e-14, -5.94798e-14, -4.7452e-08, 1.76593e-13, -2.6766e-14, 1.76593e-13, -4.74515e-08
1, 36, 1.22, -5849.81, -8.56587e-14, -4.8619e-14, -8.56587e-14, -4.77945e-08, 2.84788e-12, -4.8619e-14, 2.84788e-12, -4.77941e-08
1, 37, 1.24, -6249.4, -6.74748e-14, -3.65486e-14, -6.74748e-14, -4.8151e-08, 6.25569e-14, -3.65486e-14, 6.25569e-14, -4.81507e-08
1, 38, 1.26, -6650.6, 3.03237e-13, 3.45714e-13, 3.03237e-13, -4.84564e-08, -4.0706e-13, 3.45714e-13, -4.0706e-13, -4.84561e-08
1, 39, 1.28, -7053.5, -5.87505e-15, -1.49685e-13, -5.87505e-15, -4.88316e-08, -3.11911e-14, -1.49685e-13, -3.11911e-14, -4.88314e-08
1, 40, 1.3, -7458.17, 6.0846e-13, 4.2505e-13, 6.0846e-13, -4.91473e-08, 1.2391e-13, 4.2505e-13, 1.2391e-13, -4.91471e-08
1, 41, 1.32, -7864.72, -6.32481e-13, -1.09734e-13, -6.32481e-13, -4.94592e-08, -1.84328e-12, -1.09734e-13, -1.84328e-12, -4.94591e-08
1, 42, 1.34, -8273.24, -4.13122e-14, -4.43862e-14, -4.13122e-14, -4.97983e-08, -1.29479e-14, -4.43862e-14, -1.29479e-14, -4.97964e-08
1, 43, 1.36, -8683.81, -6.33744e-14, 5.89358e-15, -6.33744e-14, -5.01528e-08, -3.13671e-13, 5.89358e-15, -3.13671e-13, -5.01528e-08
1, 44, 1.38, -9096.54, -1.56039e-13, -2.5402e-14, -1.56039e-13, -5.04485e-08, -1.39952e-13, -2.5402e-14, -1.39952e-13, -5.04485e-08
1, 45, 1.4, -9511.52, -1.50888e-13, -5.95204e-14, -1.50888e-13, -5.07898e-08, -1.24881e-13, -5.95204e-14, -1.24881e-13, -5.08006e-08
1, 46, 1.42, -9928.86, -2.93369e-13, -1.11392e-13, -2.93369e-13, -5.11129e-08, -2.14429e-12, -1.11392e-13, -2.14429e-12, -5.1112e-08
1, 47, 1.44, -10348.7, -5.62905e-13, 2.46461e-13, -5.62905e-13, -5.1423e-08, -2.21013e-13, 2.46461e-13, -2.21013e-13, -5.14309e-08
1, 48, 1.46, -10771, -8.4588e-14, -4.26936e-14, -8.4588e-14, -5.17242e-08, 3.32935e-13, -4.26936e-14, 3.32935e-13, -5.17309e-08
1, 49, 1.48, -11196.1, 1.24155e-12, 5.6631e-13, 1.24155e-12, -5.20445e-08, 1.80092e-12, 5.6631e-13, 1.80092e-12, -5.20531e-08
1, 50, 1.5, -11624, 3.22499e-13, 2.11587e-13, 3.22499e-13, -5.23674e-08, 5.24012e-13, 2.11587e-13, 5.24012e-13, -5.2365e-08
2, 1, 1.51, -10514.3, 1.04778e-13, 3.73551e-13, 1.04778e-13, -5.44286e-08, 4.5781e-13, 3.73551e-13, 4.5781e-13, -5.443e-08
2, 2, 1.52, -9472.53, 2.60948e-14, 3.18976e-13, 2.60948e-14, -5.41133e-08, 4.76562e-13, 3.18976e-13, 4.76562e-13, -5.41112e-08
2, 3, 1.53, -8493.5, -2.20896e-14, 3.2661e-13, -2.20896e-14, -5.38105e-08, 9.24516e-14, 3.2661e-13, 9.24516e-14, -5.38086e-08
2, 4, 1.54, -7572.35, 3.81911e-14, -8.35815e-14, 3.81911e-14, -5.34931e-08, 9.48239e-13, -8.35815e-14, 9.48239e-13, -5.34914e-08
2, 5, 1.55, -6704.56, 6.76621e-14, 1.49382e-13, 6.76621e-14, -5.31411e-08, 2.81246e-12, 1.49382e-13, 2.81246e-12, -5.31467e-08
2, 6, 1.56, -5885.96, 7.30042e-14, -2.75896e-14, 7.30042e-14, -5.27905e-08, 3.59345e-13, -2.75896e-14, 3.59345e-13, -5.28181e-08
2, 7, 1.57, -5112.64, 1.09892e-13, 3.22895e-14, 1.09892e-13, -5.24531e-08, 3.17894e-13, 3.22895e-14, 3.17894e-13, -5.24795e-08
2, 8, 1.58, -4381.02, 9.80946e-14, 2.48496e-13, 9.80946e-14, -5.21116e-08, 1.27499e-13, 2.48496e-13, 1.27499e-13, -5.21228e-08
2, 9, 1.59, -3687.75, 1.48012e-13, 1.76479e-13, 1.48012e-13, -5.17858e-08, 3.88236e-13, 1.76479e-13, 3.88236e-13, -5.17816e-08
2, 10, 1.6, -3029.73, -5.31733e-14, 1.57186e-14, -5.31733e-14, -5.14066e-08, 2.20812e-13, 1.57186e-14, 2.20812e-13, -5.14174e-08
2, 11, 1.61, -2404.11, 1.0993e-13, 1.82825e-13, 1.0993e-13, -5.10593e-08, -1.44938e-12, 1.82825e-13, -1.44938e-12, -5.10552e-08
2, 12, 1.62, -1808.23, -5.14611e-13, 3.22652e-14, -5.14611e-13, -5.07168e-08, -1.5783e-12, 3.22652e-14, -1.5783e-12, -5.07149e-08
2, 13, 1.63, -1239.62, 1.11515e-13, 2.12837e-13, 1.11515e-13, -5.03337e-08, 6.4384e-13, 2.12837e-13, 6.4384e-13, -5.03303e-08
2, 14, 1.64, -696.028, 7.26488e-14, 1.63852e-13, 7.26488e-14, -5.0008e-08, 2.18802e-12, 1.63852e-13, 2.18802e-12, -5.00049e-08
2, 15, 1.65, -175.345, -3.83193e-13, -2.95973e-13, -3.83193e-13, -4.96505e-08, -4.05982e-13, -2.95973e-13, -4.05982e-13, -4.96624e-08
2, 16, 1.66, 324.368, -2.35118e-13, -5.58188e-13, -2.35118e-13, -4.93017e-08, -2.22353e-13, -5.58188e-13, -2.22353e-13, -4.92985e-08
2, 17, 1.67, 804.904, -6.61498e-16, 1.05094e-13, -6.61498e-16, -4.89043e-08, 7.22696e-14, 1.05094e-13, 7.22696e-14, -4.89051e-08
2, 18, 1.68, 1267.92, 4.56119e-14, 1.28076e-13, 4.56119e-14, -4.85684e-08, 2.32284e-13, 1.28076e-13, 2.32284e-13, -4.85657e-08
2, 19, 1.69, 1714.94, 1.00863e-13, 2.53537e-13, 1.00863e-13, -4.82471e-08, 2.04773e-13, 2.53537e-13, 2.04773e-13, -4.82337e-08
2, 20, 1.7, 2147.38, -2.77035e-13, 2.82076e-13, -2.77035e-13, -4.78911e-08, 5.45995e-13, 2.82076e-13, 5.45995e-13, -4.78894e-08
2, 21, 1.71, 2566.53, 1.08562e-13, 2.78602e-13, 1.08562e-13, -4.75182e-08, 2.16415e-13, 2.78602e-13, 2.16415e-13, -4.75167e-08
2, 22, 1.72, 2973.6, -4.62384e-14, 1.8147e-14, -4.62384e-14, -4.71513e-08, 1.91087e-13, 1.8147e-14, 1.91087e-13, -4.71499e-08
2, 23, 1.73, 3369.7, 9.80857e-14, 2.19599e-13, 9.80857e-14, -4.68027e-08, -1.8064e-12, 2.19599e-13, -1.8064e-12, -4.68088e-08
2, 24, 1.74, 3755.83, -1.96714e-13, -2.98294e-14, -1.96714e-13, -4.64507e-08, -1.89961e-12, -2.98294e-14, -1.89961e-12, -4.64492e-08
2, 25, 1.75, 4132.94, -6.71874e-13, -1.10615e-13, -6.71874e-13, -4.6119e-08, 6.39886e-13, -1.10615e-13, 6.39886e-13, -4.61232e-08
2, 26, 1.76, 4501.88, 7.21926e-14, 1.97516e-13, 7.21926e-14, -4.57771e-08, -1.98073e-14, 1.97516e-13, -1.98073e-14, -4.57683e-08
2, 27, 1.77, 4863.46, 7.3358e-15, 1.81273e-14, 7.3358e-15, -4.54064e-08, 1.43268e-13, 1.81273e-14, 1.43268e-13, -4.54092e-08
2, 28, 1.78, 5218.4, 2.72216e-13, 2.20845e-13, 2.72216e-13, -4.50768e-08, -1.89543e-14, 2.20845e-13, -1.89543e-14, -4.50757e-08
2, 29, 1.79, 5567.37, 9.49282e-14, 1.85702e-13, 9.49282e-14, -4.47324e-08, -9.12736e-15, 1.85702e-13, -9.12736e-15, -4.47242e-08
2, 30, 1.8, 5911, -3.45885e-13, 2.59388e-13, -3.45885e-13, -4.44148e-08, 3.11561e-14, 2.59388e-13, 3.11561e-14, -4.4418e-08
2, 31, 1.81, 6249.83, -4.74108e-15, 1.13624e-13, -4.74108e-15, -4.40598e-08, -9.72313e-15, 1.13624e-13, -9.72313e-15, -4.40592e-08
2, 32, 1.82, 6584.4, 5.00705e-14, 1.85524e-13, 5.00705e-14, -4.37331e-08, 2.28418e-14, 1.85524e-13, 2.28418e-14, -4.37252e-08
2, 33, 1.83, 6915.19, 2.53224e-13, -6.33129e-13, 2.53224e-13, -4.33974e-08, -1.29954e-14, -6.33129e-13, -1.29954e-14, -4.34046e-08
2, 34, 1.84, 7242.62, 7.27165e-14, 1.93321e-13, 7.27165e-14, -4.30922e-08, 2.02788e-14, 1.93321e-13, 2.02788e-14, -4.30842e-08
2, 35, 1.85, 7567.1, 6.98231e-14, 1.46678e-13, 6.98231e-14, -4.27629e-08, 6.23893e-15, 1.46678e-13, 6.23893e-15, -4.27628e-08
2, 36, 1.86, 7888.99, -1.13028e-12, -6.92912e-13, -1.13028e-12, -4.24245e-08, -9.08629e-13, -6.92912e-13, -9.08629e-13, -4.24226e-08
2, 37, 1.87, 8208.64, -1.56307e-13, -8.2902e-14, -1.56307e-13, -4.20926e-08, 2.66308e-12, -8.2902e-14, 2.66308e-12, -4.20944e-08
2, 38, 1.88, 8526.35, -3.88039e-14, 1.54855e-14, -3.88039e-14, -4.17695e-08, 1.22825e-13, 1.54855e-14, 1.22825e-13, -4.17623e-08
2, 39, 1.89, 8842.4, 5.30859e-13, 1.09692e-13, 5.30859e-13, -4.14608e-08, 2.05713e-13, 1.09692e-13, 2.05713e-13, -4.14611e-08
2, 40, 1.9, 9157.06, -5.04933e-14, 4.43908e-14, -5.04933e-14, -4.11594e-08, 7.7475e-14, 4.43908e-14, 7.7475e-14, -4.11596e-08
2, 41, 1.91, 9470.54, -3.23085e-14, -5.30349e-14, -3.23085e-14, -4.08524e-08, -2.76244e-13, -5.30349e-14, -2.76244e-13, -4.08526e-08
2, 42, 1.92, 9783.08, 9.22996e-13, 1.01586e-12, 9.22996e-13, -4.05355e-08, -7.08422e-14, 1.01586e-12, -7.08422e-14, -4.05348e-08
2, 43, 1.93, 10094.9, -1.19014e-14, -1.75093e-14, -1.19014e-14, -4.02366e-08, 4.86273e-13, -1.75093e-14, 4.86273e-13, -4.02368e-08
2, 44, 1.94, 10406.1, -5.94216e-14, 2.25033e-14, -5.94216e-14, -3.99279e-08, -4.22319e-14, 2.25033e-14, -4.22319e-14, -3.99281e-08
2, 45, 1.95, 10716.8, 3.28737e-13, 1.32585e-13, 3.28737e-13, -3.96334e-08, 1.38234e-14, 1.32585e-13, 1.38234e-14, -3.96336e-08
2, 46, 1.96, 11027.4, -9.85559e-15, -1.91441e-13, -9.85559e-15, -3.93284e-08, -7.78809e-14, -1.91441e-13, -7.78809e-14, -3.93206e-08
2, 47, 1.97, 11337.8, 4.58198e-13, -3.42339e-13, 4.58198e-13, -3.90427e-08, -3.21787e-13, -3.42339e-13, -3.21787e-13, -3.90433e-08
2, 48, 1.98, 11648.1, 9.41e-14, 9.59173e-14, 9.41e-14, -3.87609e-08, -3.49828e-14, 9.59173e-14, -3.49828e-14, -3.87613e-08
2, 49, 1.99, 11958.6, 2.97348e-13, 2.42795e-13, 2.97348e-13, -3.85007e-08, 1.41447e-13, 2.42795e-13, 1.41447e-13, -3.84992e-08
2, 50, 2, 12269.3, 3.15202e-13, 5.45245e-13, 3.15202e-13, -3.81636e-08, -2.73778e-13, 5.45245e-13, -2.73778e-13, -3.81642e-08
3, 1, 2.01, 11327.3, 9.4202e-13, 1.0289e-12, 9.4202e-13, -3.77228e-08, 1.98156e-13, 1.0289e-12, 1.98156e-13, -3.77233e-08
3, 2, 2.02, 10444.2, -8.87304e-13, -6.05507e-13, -8.87304e-13, -3.79877e-08, 2.04578e-13, -6.05507e-13, 2.04578e-13, -3.79881e-08
3, 3, 2.03, 9613.67, -9.44684e-13, -6.48785e-13, -9.44684e-13, -3.82755e-08, 1.22853e-13, -6.48785e-13, 1.22853e-13, -3.82759e-08
3, 4, 2.04, 8830.09, -1.18612e-13, -2.58173e-14, -1.18612e-13, -3.85657e-08, 4.22187e-13, -2.58173e-14, 4.22187e-13, -3.85661e-08
3, 5, 2.05, 8088.43, 1.99072e-14, 9.95023e-14, 1.99072e-14, -3.8865e-08, -1.81706e-14, 9.95023e-14, -1.81706e-14, -3.88724e-08
3, 6, 2.06, 7384.18, 9.73738e-13, 3.66468e-13, 9.73738e-13, -3.91624e-08, 7.20546e-13, 3.66468e-13, 7.20546e-13, -3.91564e-08
3, 7, 2.07, 6713.3, 1.61377e-13, 7.74817e-14, 1.61377e-13, -3.94564e-08, 6.38759e-14, 7.74817e-14, 6.38759e-14, -3.94566e-08
3, 8, 2.08, 6072.16, -2.37921e-12, -1.35405e-12, -2.37921e-12, -3.97374e-08, 9.76819e-14, -1.35405e-12, 9.76819e-14, -3.97386e-08
3, 9, 2.09, 5457.53, 9.10722e-14, 9.16774e-14, 9.10722e-14, -4.00584e-08, 2.63424e-14, 9.16774e-14, 2.63424e-14, -4.00586e-08
3, 10, 2.1, 4866.5, -6.6997e-13, -2.01581e-12, -6.6997e-13, -4.03197e-08, 4.34936e-13, -2.01581e-12, 4.34936e-13, -4.03236e-08
3, 11, 2.11, 4296.48, -1.42608e-12, -1.36344e-12, -1.42608e-12, -4.06403e-08, -1.50034e-12, -1.36344e-12, -1.50034e-12, -4.06402e-08
3, 12, 2.12, 3745.13, -1.28965e-12, -1.44447e-12, -1.28965e-12, -4.09576e-08, 6.28064e-14, -1.44447e-12, 6.28064e-14, -4.09576e-08
3, 13, 2.13, 3210.38, -1.14385e-12, -2.36365e-14, -1.14385e-12, -4.12711e-08, 1.07844e-13, -2.36365e-14, 1.07844e-13, -4.12675e-08
3, 14, 2.14, 2690.34, 9.09764e-13, 9.64353e-13, 9.09764e-13, -4.15623e-08, 4.5349e-14, 9.64353e-13, 4.5349e-14, -4.15624e-08
3, 15, 2.15, 2183.34, -7.04457e-13, -7.29292e-13, -7.04457e-13, -4.18822e-08, 9.00179e-14, -7.29292e-13, 9.00179e-14, -4.18823e-08
3, 16, 2.16, 1687.87, -5.43441e-13, -1.25778e-12, -5.43441e-13, -4.21946e-08, -6.36629e-13, -1.25778e-12, -6.36629e-13, -4.2192e-08
3, 17, 2.17, 1202.58, 1.97049e-12, 7.8806e-13, 1.97049e-12, -4.25067e-08, -1.2715e-14, 7.8806e-13, -1.2715e-14, -4.25069e-08
3, 18, 2.18, 726.259, -3.93228e-13, -4.82772e-13, -3.93228e-13, -4.28321e-08, 3.53163e-14, -4.82772e-13, 3.53163e-14, -4.28323e-08
3, 19, 2.19, 257.815, -1.34224e-14, -3.33517e-13, -1.34224e-14, -4.31634e-08, 5.44383e-13, -3.33517e-13, 5.44383e-13, -4.31635e-08
3, 20, 2.2, -203.735, -9.12047e-13, -2.98243e-13, -9.12047e-13, -4.34948e-08, -8.69282e-13, -2.98243e-13, -8.69282e-13, -4.34894e-08
3, 21, 2.21, -659.274, -5.36208e-15, -3.943e-13, -5.36208e-15, -4.38104e-08, -4.051e-13, -3.943e-13, -4.051e-13, -4.38108e-08
3, 22, 2.22, -1109.6, -2.03319e-13, -1.58499e-13, -2.03319e-13, -4.41548e-08, -9.45546e-14, -1.58499e-13, -9.45546e-14, -4.41524e-08
3, 23, 2.23, -1555.42, -7.95865e-14, 1.10405e-14, -7.95865e-14, -4.44928e-08, 3.78163e-14, 1.10405e-14, 3.78163e-14, -4.44933e-08
3, 24, 2.24, -1997.4, 1.00313e-12, 1.18228e-13, 1.00313e-12, -4.48122e-08, 4.94082e-14, 1.18228e-13, 4.94082e-14, -4.48163e-08
3, 25, 2.25, -2436.12, -1.77913e-13, -1.48662e-13, -1.77913e-13, -4.51605e-08, 1.94301e-14, -1.48662e-13, 1.94301e-14, -4.5168e-08
3, 26, 2.26, -2872.11, -4.88844e-14, -4.49959e-14, -4.88844e-14, -4.55145e-08, 3.80873e-14, -4.49959e-14, 3.80873e-14, -4.55143e-08
3, 27, 2.27, -3305.85, -9.26985e-15, -4.84469e-13, -9.26985e-15, -4.58276e-08, 3.90832e-14, -4.84469e-13, 3.90832e-14, -4.58274e-08
3, 28, 2.28, -3737.78, -2.99751e-12, -2.3183e-12, -2.99751e-12, -4.6188e-08, 2.94082e-14, -2.3183e-12, 2.94082e-14, -4.61879e-08
3, 29, 2.29, -4168.32, -1.7214e-13, -2.77929e-13, -1.7214e-13, -4.65303e-08, -1.17363e-13, -2.77929e-13, -1.17363e-13, -4.65302e-08
3, 30, 2.3, -4597.81, -2.8462e-13, -1.87214e-13, -2.8462e-13, -4.68607e-08, 9.27396e-13, -1.87214e-13, 9.27396e-13, -4.68606e-08
3, 31, 2.31, -5026.61, -2.58141e-13, 7.802e-13, -2.58141e-13, -4.72114e-08, 6.06235e-13, 7.802e-13, 6.06235e-13, -4.72113e-08
3, 32, 2.32, -5455.02, -9.33305e-13, -1.53697e-13, -9.33305e-13, -4.75441e-08, -8.9909e-13, -1.53697e-13, -8.9909e-13, -4.75404e-08
3, 33, 2.33, -5883.34, -8.6984e-14, -3.64724e-14, -8.6984e-14, -4.79169e-08, 8.4482e-14, -3.64724e-14, 8.4482e-14, -4.79023e-08
3, 34, 2.34, -6311.82, -5.88719e-13, -8.23132e-13, -5.88719e-13, -4.82338e-08, -2.45063e-13, -8.23132e-13, -2.45063e-13, -4.824e-08
3, 35, 2.35, -6740.71, -2.11336e-13, -2.02347e-13, -2.11336e-13, -4.86177e-08, 9.57983e-14, -2.02347e-13, 9.57983e-14, -4.86182e-08
3, 36, 2.36, -7170.26, 9.72434e-13, 9.11627e-13, 9.72434e-13, -4.89401e-08, 2.9533e-13, 9.11627e-13, 2.9533e-13, -4.89405e-08
3, 37, 2.37, -7600.68, 2.28267e-12, 9.34755e-13, 2.28267e-12, -4.92967e-08, 4.28695e-14, 9.34755e-13, 4.28695e-14, -4.92971e-08
3, 38, 2.38, -8032.18, -2.25075e-13, -2.3913e-13, -2.25075e-13, -4.96324e-08, 8.95859e-14, -2.3913e-13, 8.95859e-14, -4.96327e-08
3, 39, 2.39, -8464.96, -8.62412e-13, -1.27633e-12, -8.62412e-13, -4.99884e-08, 2.53193e-13, -1.27633e-12, 2.53193e-13, -4.99887e-08
3, 40, 2.4, -8899.22, -1.45625e-13, -2.09929e-13, -1.45625e-13, -5.03097e-08, -1.75315e-14, -2.09929e-13, -1.75315e-14, -5.031e-08
3, 41, 2.41, -9335.12, 5.26249e-13, -1.01547e-12, 5.26249e-13, -5.06934e-08, -9.43159e-14, -1.01547e-12, -9.43159e-14, -5.06845e-08
3, 42, 2.42, -9772.85, 1.73215e-13, -5.92092e-14, 1.73215e-13, -5.09976e-08, -5.58637e-13, -5.92092e-14, -5.58637e-13, -5.09983e-08
3, 43, 2.43, -10212.6, -2.08512e-14, -4.91831e-15, -2.08512e-14, -5.13609e-08, -1.90045e-14, -4.91831e-15, -1.90045e-14, -5.13615e-08
3, 44, 2.44, -10654.5, -5.77653e-14, -2.21705e-13, -5.77653e-14, -5.17071e-08, 1.38688e-13, -2.21705e-13, 1.38688e-13, -5.17077e-08
3, 45, 2.45, -11098.8, 8.70256e-15, 1.02567e-13, 8.70256e-15, -5.20433e-08, -1.74749e-13, 1.02567e-13, -1.74749e-13, -5.20296e-08
3, 46, 2.46, -11545.5, -1.45933e-13, 5.90086e-14, -1.45933e-13, -5.23813e-08, 3.9179e-13, 5.90086e-14, 3.9179e-13, -5.23881e-08
3, 47, 2.47, -11995, -3.2751e-13, -2.94362e-13, -3.2751e-13, -5.27032e-08, -1.13139e-12, -2.94362e-13, -1.13139e-12, -5.27002e-08
3, 48, 2.48, -12447.3, -3.09812e-13, 4.74313e-14, -3.09812e-13, -5.2999e-08, -2.18546e-14, 4.74313e-14, -2.18546e-14, -5.29856e-08
3, 49, 2.49, -12902.5, 7.47347e-13, 1.28491e-13, 7.47347e-13, -5.33235e-08, -4.82221e-13, 1.28491e-13, -4.82221e-13, -5.33249e-08
3, 50, 2.5, -13361, -1.78644e-13, -2.15325e-13, -1.78644e-13, -5.36206e-08, -5.45236e-13, -2.15325e-13, -5.45236e-13, -5.36219e-08
4, 1, 2.505, -12298.8, -7.97292e-14, 4.19163e-13, -7.97292e-14, -5.51089e-08, -2.35863e-12, 4.19163e-13, -2.35863e-12, -5.51102e-08
4, 2, 2.51, -11268.8, -1.98415e-13, -2.46977e-13, -1.98415e-13, -5.47964e-08, 4.17916e-14, -2.46977e-13, 4.17916e-14, -5.47976e-08
4, 3, 2.515, -10269.9, -4.20251e-14, 1.25192e-14, -4.20251e-14, -5.44618e-08, 2.10727e-14, 1.25192e-14, 2.10727e-14, -5.44517e-08
4, 4, 2.52, -9301.03, 4.30021e-13, 6.80272e-13, 4.30021e-13, -5.41198e-08, 8.28049e-13, 6.80272e-13, 8.28049e-13, -5.41283e-08
4, 5, 2.525, -8361.31, 5.16476e-14, -1.49902e-13, 5.16476e-14, -5.38112e-08, 1.73891e-13, -1.49902e-13, 1.73891e-13, -5.38122e-08
4, 6, 2.53, -7449.73, -5.01218e-14, 3.16931e-13, -5.01218e-14, -5.34586e-08, -1.38263e-12, 3.16931e-13, -1.38263e-12, -5.34596e-08
4, 7, 2.535, -6565.36, 3.89015e-14, -5.5963e-14, 3.89015e-14, -5.31342e-08, 9.34865e-14, -5.5963e-14, 9.34865e-14, -5.31352e-08
4, 8, 2.54, -5707.26, -2.7123e-13, 7.72358e-13, -2.7123e-13, -5.27596e-08, -1.02075e-12, 7.72358e-13, -1.02075e-12, -5.27587e-08
4, 9, 2.545, -4874.51, -1.19625e-13, -1.26289e-13, -1.19625e-13, -5.2406e-08, 1.79022e-12, -1.26289e-13, 1.79022e-12, -5.23995e-08
4, 10, 2.55, -4066.24, -1.66282e-13, -5.64002e-13, -1.66282e-13, -5.20558e-08, 6.64897e-13, -5.64002e-13, 6.64897e-13, -5.20568e-08
4, 11, 2.555, -3281.58, -3.65203e-14, -3.85837e-14, -3.65203e-14, -5.17007e-08, 3.53036e-13, -3.85837e-14, 3.53036e-13, -5.17016e-08
4, 12, 2.56, -2519.67, -1.42976e-13, -8.34388e-14, -1.42976e-13, -5.13424e-08, 3.04439e-13, -8.34388e-14, 3.04439e-13, -5.13433e-08
4, 13, 2.565, -1779.69, -1.90792e-14, -9.1647e-14, -1.90792e-14, -5.09608e-08, 4.68522e-13, -9.1647e-14, 4.68522e-13, -5.09617e-08
4, 14, 2.57, -1060.82, -3.74422e-14, -7.56829e-14, -3.74422e-14, -5.06181e-08, 2.40128e-13, -7.56829e-14, 2.40128e-13, -5.06189e-08
4, 15, 2.575, -362.295, -2.67036e-14, -8.30983e-14, -2.67036e-14, -5.02479e-08, 1.84802e-13, -8.30983e-14, 1.84802e-13, -5.02487e-08
4, 16, 2.58, 316.67, -1.35259e-13, -4.16958e-14, -1.35259e-13, -4.98817e-08, -1.83658e-12, -4.16958e-14, -1.83658e-12, -4.98825e-08
4, 17, 2.585, 976.817, -4.75203e-14, -3.05385e-14, -4.75203e-14, -4.95542e-08, 2.21167e-13, -3.05385e-14, 2.21167e-13, -4.95549e-08
4, 18, 2.59, 1618.87, -9.35781e-14, -7.96773e-14, -9.35781e-14, -4.91638e-08, 2.51425e-13, -7.96773e-14, 2.51425e-13, -4.91644e-08
4, 19, 2.595, 2243.54, 1.86539e-12, 2.11779e-12, 1.86539e-12, -4.88096e-08, 1.57936e-13, 2.11779e-12, 1.57936e-13, -4.88102e-08
4, 20, 2.6, 2851.52, 7.26377e-13, -1.2532e-13, 7.26377e-13, -4.8465e-08, -1.10459e-12, -1.2532e-13, -1.10459e-12, -4.84582e-08
4, 21, 2.605, 3443.46, -4.42302e-14, -3.61895e-14, -4.42302e-14, -4.81299e-08, 9.58661e-14, -3.61895e-14, 9.58661e-14, -4.81306e-08
4, 22, 2.61, 4020.03, 7.88874e-14, 7.43994e-14, 7.88874e-14, -4.77554e-08, 6.73956e-14, 7.43994e-14, 6.73956e-14, -4.7771e-08
4, 23, 2.615, 4581.85, -2.38631e-14, -1.96348e-14, -2.38631e-14, -4.74084e-08, 8.20102e-14, -1.96348e-14, 8.20102e-14, -4.74087e-08
4, 24, 2.62, 5129.53, -3.11516e-14, -3.11824e-14, -3.11516e-14, -4.70172e-08, 4.03738e-14, -3.11824e-14, 4.03738e-14, -4.70249e-08
4, 25, 2.625, 5663.66, 1.60088e-14, 9.91718e-14, 1.60088e-14, -4.66841e-08, -3.00416e-14, 9.91718e-14, -3.00416e-14, -4.66842e-08
4, 26, 2.63, 6184.83, -2.89748e-14, -3.2863e-14, -2.89748e-14, -4.63337e-08, 1.27309e-14, -3.2863e-14, 1.27309e-14, -4.63301e-08
4, 27, 2.635, 6693.57, -3.07384e-14, -2.53276e-14, -3.07384e-14, -4.59901e-08, -9.68383e-14, -2.53276e-14, -9.68383e-14, -4.59903e-08
4, 28, 2.64, 7190.45, -2.98889e-14, -2.91018e-14, -2.98889e-14, -4.56523e-08, -8.38778e-14, -2.91018e-14, -8.38778e-14, -4.56487e-08
4, 29, 2.645, 7675.97, -1.38805e-13, -1.29458e-13, -1.38805e-13, -4.53206e-08, 3.04079e-16, -1.29458e-13, 3.04079e-16, -4.53209e-08
4, 30, 2.65, 8150.65, -2.38146e-14, -3.27587e-14, -2.38146e-14, -4.49605e-08, 3.10858e-13, -3.27587e-14, 3.10858e-13, -4.4957e-08
4, 31, 2.655, 8614.97, -1.65372e-14, -3.71809e-14, -1.65372e-14, -4.46075e-08, 1.51149e-15, -3.71809e-14, 1.51149e-15, -4.46041e-08
4, 32, 2.66, 9069.41, 2.34081e-13, -1.9114e-13, 2.34081e-13, -4.42787e-08, 3.19514e-14, -1.9114e-13, 3.19514e-14, -4.42763e-08
4, 33, 2.665, 9514.42, -5.24174e-14, -5.85303e-14, -5.24174e-14, -4.39283e-08, -6.28333e-14, -5.85303e-14, -6.28333e-14, -4.39259e-08
4, 34, 2.67, 9950.44, -6.32946e-15, -3.27279e-14, -6.32946e-15, -4.35983e-08, -1.21394e-13, -3.27279e-14, -1.21394e-13, -4.35987e-08
4, 35, 2.675, 10377.9, 1.38148e-13, 2.40351e-13, 1.38148e-13, -4.32661e-08, 4.23708e-14, 2.40351e-13, 4.23708e-14, -4.32666e-08
4, 36, 2.68, 10797.2, 3.99478e-14, -5.14331e-14, 3.99478e-14, -4.29389e-08, -2.72819e-13, -5.14331e-14, -2.72819e-13, -4.29393e-08
4, 37, 2.685, 11208.8, 8.75908e-13, 3.44523e-13, 8.75908e-13, -4.26107e-08, 1.61183e-14, 3.44523e-13, 1.61183e-14, -4.26092e-08
4, 38, 2.69, 11613, 1.74138e-14, -1.61278e-14, 1.74138e-14, -4.23228e-08, 1.10478e-14, -1.61278e-14, 1.10478e-14, -4.23233e-08
4, 39, 2.695, 12010.2, -3.35134e-13, -1.4069e-13, -3.35134e-13, -4.19671e-08, 4.43357e-13, -1.4069e-13, 4.43357e-13, -4.19675e-08
4, 40, 2.7, 12400.8, 5.96757e-13, 1.16712e-12, 5.96757e-13, -4.1658e-08, 8.90803e-13, 1.16712e-12, 8.90803e-13, -4.16602e-08
4, 41, 2.705, 12785.1, 1.75974e-14, -3.82834e-14, 1.75974e-14, -4.13365e-08, -3.99149e-15, -3.82834e-14, -3.99149e-15, -4.1335e-08
4, 42, 2.71, 13163.4, -4.97311e-13, -3.86516e-13, -4.97311e-13, -4.10382e-08, 2.38877e-13, -3.86516e-13, 2.38877e-13, -4.10386e-08
4, 43, 2.715, 13536.1, -9.03549e-13, -1.30022e-12, -9.03549e-13, -4.07243e-08, 4.37048e-13, -1.30022e-12, 4.37048e-13, -4.07246e-08
4, 44, 2.72, 13903.5, 1.76715e-13, 2.86416e-13, 1.76715e-13, -4.04581e-08, -9.76109e-14, 2.86416e-13, -9.76109e-14, -4.0458e-08
4, 45, 2.725, 14265.8, 3.12386e-14, 3.98553e-14, 3.12386e-14, -4.01282e-08, 1.38792e-13, 3.98553e-14, 1.38792e-13, -4.01234e-08
4, 46, 2.73, 14623.4, -5.49661e-14, -1.28168e-13, -5.49661e-14, -3.98436e-08, 1.87446e-14, -1.28168e-13, 1.87446e-14, -3.98422e-08
4, 47, 2.735, 14976.4, -1.09097e-12, 2.22422e-13, -1.09097e-12, -3.94949e-08, -9.08198e-14, 2.22422e-13, -9.08198e-14, -3.94953e-08
4, 48, 2.74, 15325.3, -7.02715e-14, -4.44073e-14, -7.02715e-14, -3.92417e-08, -2.54376e-14, -4.44073e-14, -2.54376e-14, -3.92421e-08
4, 49, 2.745, 15670.2, 9.08913e-15, -2.39987e-14, 9.08913e-15, -3.89348e-08, 4.1118e-14, -2.39987e-14, 4.1118e-14, -3.89351e-08
4, 50, 2.75, 16011.4, -2.45775e-14, 8.94213e-14, -2.45775e-14, -3.86364e-08, -1.39921e-13, 8.94213e-14, -1.39921e-13, -3.86368e-08
4, 51, 2.75, 16011.4, -5.06063e-13, -1.09027e-13, -5.06063e-13, 2.8798e-11, -7.49704e-13, -1.09027e-13, -7.49704e-13, 2.8547e-11
5, 1, 2.755, 14985.6, -2.42695e-13, 7.94873e-14, -2.42695e-13, -3.81694e-08, -2.24535e-12, 7.94873e-14, -2.24535e-12, -3.81697e-08
5, 2, 2.76, 13996.7, -6.62426e-13, -1.66685e-13, -6.62426e-13, -3.84775e-08, 6.99124e-13, -1.66685e-13, 6.99124e-13, -3.84752e-08
5, 3, 2.765, 13042.4, -1.06584e-13, -1.35572e-13, -1.06584e-13, -3.87596e-08, -4.48392e-14, -1.35572e-13, -4.48392e-14, -3.87573e-08
5, 4, 2.77, 12120.7, 1.66302e-12, 2.65021e-14, 1.66302e-12, -3.90312e-08, -2.49864e-14, 2.65021e-14, -2.49864e-14, -3.90335e-08
5, 5, 2.775, 11229.6, -2.22821e-13, -3.48154e-13, -2.22821e-13, -3.93362e-08, 1.08867e-12, -3.48154e-13, 1.08867e-12, -3.93411e-08
5, 6, 2.78, 10367.2, -3.42243e-13, -1.35406e-13, -3.42243e-13, -3.96504e-08, -2.27731e-14, -1.35406e-13, -2.27731e-14, -3.96506e-08
5, 7, 2.785, 9531.73, -7.36273e-13, -2.20205e-13, -7.36273e-13, -3.99108e-08, 3.25293e-13, -2.20205e-13, 3.25293e-13, -3.9911e-08
5, 8, 2.79, 8721.5, -1.9297e-14, -7.29284e-13, -1.9297e-14, -4.02463e-08, -1.03517e-13, -7.29284e-13, -1.03517e-13, -4.02465e-08
5, 9, 2.795, 7934.95, -6.14109e-13, 1.15133e-13, -6.14109e-13, -4.05335e-08, -1.76115e-13, 1.15133e-13, -1.76115e-13, -4.05337e-08
5, 10, 2.8, 7170.59, 4.60892e-13, 1.41634e-12, 4.60892e-13, -4.08428e-08, 1.16245e-12, 1.41634e-12, 1.16245e-12, -4.0843e-08
5, 11, 2.805, 6427.01, -7.29155e-14, 1.14659e-13, -7.29155e-14, -4.11427e-08, 1.21041e-12, 1.14659e-13, 1.21041e-12, -4.11429e-08
5, 12, 2.81, 5702.9, -1.48351e-13, -2.23651e-13, -1.48351e-13, -4.14676e-08, -3.9565e-14, -2.23651e-13, -3.9565e-14, -4.14678e-08
5, 13, 2.815, 4996.99, -1.31271e-12, -1.28017e-12, -1.31271e-12, -4.17852e-08, -2.56391e-14, -1.28017e-12, -2.56391e-14, -4.17854e-08
5, 14, 2.82, 4308.11, 1.34744e-14, -2.11067e-13, 1.34744e-14, -4.20792e-08, -1.29538e-13, -2.11067e-13, -1.29538e-13, -4.20794e-08
5, 15, 2.825, 3635.13, 7.23201e-14, 1.56313e-13, 7.23201e-14, -4.23817e-08, -1.83225e-14, 1.56313e-13, -1.83225e-14, -4.23819e-08
5, 16, 2.83, 2977.01, 6.47091e-13, 1.19012e-12, 6.47091e-13, -4.27074e-08, -1.00533e-12, 1.19012e-12, -1.00533e-12, -4.27076e-08
5, 17, 2.835, 2332.74, -1.65033e-13, -1.41089e-13, -1.65033e-13, -4.30392e-08, -7.06879e-14, -1.41089e-13, -7.06879e-14, -4.30393e-08
5, 18, 2.84, 1701.38, -1.50664e-12, -4.17559e-13, -1.50664e-12, -4.33765e-08, 2.28039e-13, -4.17559e-13, 2.28039e-13, -4.33766e-08
5, 19, 2.845, 1082.05, 3.12771e-13, 9.73287e-13, 3.12771e-13, -4.36964e-08, 5.12309e-13, 9.73287e-13, 5.12309e-13, -4.36946e-08
5, 20, 2.85, 473.882, 2.70484e-13, 1.64912e-13, 2.70484e-13, -4.40197e-08, -4.37067e-13, 1.64912e-13, -4.37067e-13, -4.40199e-08
5, 21, 2.855, -123.908, -2.33319e-13, -1.6119e-13, -2.33319e-13, -4.436e-08, 1.02275e-14, -1.6119e-13, 1.02275e-14, -4.43611e-08
5, 22, 2.86, -712.082, -8.44638e-14, -1.0362e-13, -8.44638e-14, -4.46988e-08, -7.88862e-13, -1.0362e-13, -7.88862e-13, -4.46989e-08
5, 23, 2.865, -1291.36, -1.27917e-13, -1.79196e-13, -1.27917e-13, -4.50337e-08, -1.5361e-12, -1.79196e-13, -1.5361e-12, -4.50339e-08
5, 24, 2.87, -1862.42, -1.32968e-13, -2.60757e-14, -1.32968e-13, -4.53596e-08, -2.88553e-13, -2.60757e-14, -2.88553e-13, -4.5356e-08
5, 25, 2.875, -2425.9, -9.89639e-14, -1.3038e-13, -9.89639e-14, -4.57101e-08, -6.40422e-14, -1.3038e-13, -6.40422e-14, -4.57103e-08
5, 26, 2.88, -2982.43, -1.69772e-14, -4.99145e-14, -1.69772e-14, -4.60439e-08, 6.54744e-13, -4.99145e-14, 6.54744e-13, -4.60441e-08
5, 27, 2.885, -3532.59, -5.24063e-13, -6.00125e-13, -5.24063e-13, -4.64021e-08, -1.80597e-13, -6.00125e-13, -1.80597e-13, -4.64023e-08
5, 28, 2.89, -4076.93, -2.59417e-14, -5.80769e-14, -2.59417e-14, -4.67623e-08, -4.3727e-14, -5.80769e-14, -4.3727e-14, -4.67699e-08
5, 29, 2.895, -4615.98, -8.2459e-14, -1.06618e-13, -8.2459e-14, -4.70768e-08, 3.24005e-14, -1.06618e-13, 3.24005e-14, -4.70768e-08
5, 30, 2.9, -5150.25, -5.41584e-14, -1.136e-13, -5.41584e-14, -4.74647e-08, 5.4092e-14, -1.136e-13, 5.4092e-14, -4.74647e-08
5, 31, 2.905, -5680.21, -1.30306e-14, -1.84757e-14, -1.30306e-14, -4.77753e-08, 8.57457e-14, -1.84757e-14, 8.57457e-14, -4.77753e-08
5, 32, 2.91, -6206.33, -1.13155e-12, 1.05135e-13, -1.13155e-12, -4.81371e-08, 9.24266e-13, 1.05135e-13, 9.24266e-13, -4.81445e-08
5, 33, 2.915, -6729.04, -4.76482e-13, -5.68831e-13, -4.76482e-13, -4.84893e-08, -2.12739e-12, -5.68831e-13, -2.12739e-12, -4.84891e-08
5, 34, 2.92, -7248.78, -1.42772e-13, -1.86203e-13, -1.42772e-13, -4.88105e-08, 2.54139e-14, -1.86203e-13, 2.54139e-14, -4.88103e-08
5, 35, 2.925, -7765.93, -1.12824e-13, -4.24578e-14, -1.12824e-13, -4.91961e-08, -1.25127e-14, -4.24578e-14, -1.25127e-14, -4.9196e-08
5, 36, 2.93, -8280.89, -6.92625e-15, -3.15767e-14, -6.92625e-15, -4.95398e-08, 7.47324e-13, -3.15767e-14, 7.47324e-13, -4.95396e-08
5, 37, 2.935, -8794.04, -1.55578e-14, -4.90036e-14, -1.55578e-14, -4.99117e-08, -4.2596e-13, -4.90036e-14, -4.2596e-13, -4.98967e-08
5, 38, 2.94, -9305.73, -1.87769e-13, -1.00386e-13, -1.87769e-13, -5.02491e-08, 9.7e-13, -1.00386e-13, 9.7e-13, -5.02457e-08
5, 39, 2.945, -9816.31, 1.65991e-13, 9.42529e-13, 1.65991e-13, -5.06014e-08, -1.35501e-12, 9.42529e-13, -1.35501e-12, -5.05943e-08
5, 40, 2.95, -10326.1, -2.69813e-13, 4.96069e-13, -2.69813e-13, -5.09658e-08, -1.41123e-12, 4.96069e-13, -1.41123e-12, -5.09626e-08
5, 41, 2.955, -10835.5, -5.18643e-14, -3.41477e-14, -5.18643e-14, -5.1327e-08, -2.26944e-14, -3.41477e-14, -2.26944e-14, -5.13275e-08
5, 42, 2.96, -11344.7, -2.02079e-14, -7.98409e-14, -2.02079e-14, -5.16338e-08, -2.03998e-14, -7.98409e-14, -2.03998e-14, -5.16199e-08
5, 43, 2.965, -11854.2, -3.07724e-13, -5.50734e-13, -3.07724e-13, -5.20073e-08, 1.99199e-13, -5.50734e-13, 1.99199e-13, -5.20081e-08
5, 44, 2.97, -12364.1, 7.3219e-13, 8.72573e-13, 7.3219e-13, -5.23512e-08, -4.61921e-13, 8.72573e-13, -4.61921e-13, -5.23576e-08
5, 45, 2.975, -12874.8, 1.41924e-13, -1.39614e-14, 1.41924e-13, -5.2674e-08, 2.43678e-13, -1.39614e-14, 2.43678e-13, -5.26747e-08
5, 46, 2.98, -13386.6, -2.87805e-13, -2.73914e-13, -2.87805e-13, -5.30035e-08, -3.05846e-12, -2.73914e-13, -3.05846e-12, -5.30041e-08
5, 47, 2.985, -13899.8, -6.15065e-13, -4.06607e-13, -6.15065e-13, -5.33299e-08, 1.58667e-14, -4.06607e-13, 1.58667e-14, -5.33197e-08
5, 48, 2.99, -14414.6, 3.83087e-13, -3.86945e-13, 3.83087e-13, -5.3675e-08, -9.98396e-13, -3.86945e-13, -9.98396e-13, -5.36758e-08
5, 49, 2.995, -14931.3, -1.74738e-14, -6.50313e-14, -1.74738e-14, -5.39667e-08, 6.93411e-14, -6.50313e-14, 6.93411e-14, -5.39674e-08
5, 50, 3, -15450.3, -1.45074e-13, -7.79628e-13, -1.45074e-13, -5.42855e-08, -3.1756e-13, -7.79628e-13, -3.1756e-13, -5.42975e-08
5, 51, 3, -15450.3, 1.64563e-13, -1.48785e-13, 1.64563e-13, -1.68421e-11, -3.42482e-13, -1.48785e-13, -3.42482e-13, -1.98513e-12
6, 1, 3.0025, -14471.7, -3.98801e-14, -1.00735e-13, -3.98801e-14, -5.54348e-08, -4.45419e-13, -1.00735e-13, -4.45419e-13, -5.54355e-08
6, 2, 3.005, -13507.8, -3.11083e-14, -8.01643e-13, -3.11083e-14, -5.51033e-08, 4.78774e-13, -8.01643e-13, 4.78774e-13, -5.5104e-08
6, 3, 3.0075, -12558.5, 7.26009e-14, 1.86574e-13, 7.26009e-14, -5.47934e-08, -3.19721e-13, 1.86574e-13, -3.19721e-13, -5.47825e-08
6, 4, 3.01, -11623.6, -2.95833e-13, -8.93457e-14, -2.95833e-13, -5.44883e-08, 4.72009e-14, -8.93457e-14, 4.72009e-14, -5.4489e-08
6, 5, 3.0125, -10702.8, -1.06326e-13, 2.77279e-14, -1.06326e-13, -5.41311e-08, -1.36605e-13, 2.77279e-14, -1.36605e-13, -5.41472e-08
6, 6, 3.015, -9795.92, -3.64469e-13, -4.15884e-13, -3.64469e-13, -5.3788e-08, 1.35026e-12, -4.15884e-13, 1.35026e-12, -5.37885e-08
6, 7, 3.0175, -8902.78, 5.79243e-15, 3.7299e-14, 5.79243e-15, -5.34288e-08, 9.98645e-13, 3.7299e-14, 9.98645e-13, -5.34458e-08
6, 8, 3.02, -8023.19, -2.69983e-13, -1.2517e-12, -2.69983e-13, -5.30985e-08, -1.55965e-12, -1.2517e-12, -1.55965e-12, -5.30952e-08
6, 9, 3.0225, -7156.93, -6.96362e-14, -3.87913e-14, -6.96362e-14, -5.27267e-08, -1.15752e-14, -3.87913e-14, -1.15752e-14, -5.27364e-08
6, 10, 3.025, -6303.8, -2.48685e-13, 9.14552e-13, -2.48685e-13, -5.23944e-08, 3.37112e-13, 9.14552e-13, 3.37112e-13, -5.23946e-08
6, 11, 3.0275, -5463.61, -5.41109e-13, -8.1255e-13, -5.41109e-13, -5.20069e-08, -4.61273e-13, -8.1255e-13, -4.61273e-13, -5.20071e-08
6, 12, 3.03, -4636.16, -2.88955e-13, 1.88541e-13, -2.88955e-13, -5.16556e-08, -7.22552e-13, 1.88541e-13, -7.22552e-13, -5.16707e-08
6, 13, 3.0325, -3821.25, -1.07452e-13, -6.67617e-14, -1.07452e-13, -5.12714e-08, 3.42877e-14, -6.67617e-14, 3.42877e-14, -5.1277e-08
6, 14, 3.035, -3018.67, -1.03882e-13, -5.49935e-14, -1.03882e-13, -5.09306e-08, -1.63921e-13, -5.49935e-14, -1.63921e-13, -5.09305e-08
6, 15, 3.0375, -2228.23, -1.24482e-14, 2.62151e-14, -1.24482e-14, -5.0585e-08, -1.91622e-13, 2.62151e-14, -1.91622e-13, -5.05737e-08
6, 16, 3.04, -1449.74, -2.39865e-13, -3.55296e-13, -2.39865e-13, -5.02083e-08, -2.26315e-13, -3.55296e-13, -2.26315e-13, -5.02084e-08
6, 17, 3.0425, -683.001, -7.00276e-14, -2.99513e-15, -7.00276e-14, -4.98466e-08, -2.09184e-13, -2.99513e-15, -2.09184e-13, -4.98317e-08
6, 18, 3.045, 72.1888, -1.06472e-12, -1.1783e-12, -1.06472e-12, -4.94895e-08, -1.80189e-13, -1.1783e-12, -1.80189e-13, -4.9486e-08
6, 19, 3.0475, 816.02, -2.43809e-13, -1.51463e-13, -2.43809e-13, -4.90803e-08, 3.34398e-13, -1.51463e-13, 3.34398e-13, -4.90806e-08
6, 20, 3.05, 1548.69, 1.09111e-12, 2.17602e-13, 1.09111e-12, -4.87726e-08, 8.7896e-13, 2.17602e-13, 8.7896e-13, -4.87766e-08
6, 21, 3.0525, 2270.38, -5.63589e-14, -4.3321e-14, -5.63589e-14, -4.84031e-08, -9.21989e-14, -4.3321e-14, -9.21989e-14, -4.84033e-08
6, 22, 3.055, 2981.29, -3.44749e-14, -3.87168e-14, -3.44749e-14, -4.80426e-08, -1.18557e-13, -3.87168e-14, -1.18557e-13, -4.80428e-08
6, 23, 3.0575, 3681.61, -9.928e-14, -1.18312e-13, -9.928e-14, -4.76831e-08, -1.55152e-13, -1.18312e-13, -1.55152e-13, -4.76834e-08
6, 24, 3.06, 4371.53, -1.8218e-13, -1.28125e-12, -1.8218e-13, -4.73143e-08, -1.71227e-12, -1.28125e-12, -1.71227e-12, -4.73108e-08
6, 25, 3.0625, 5051.24, -8.17529e-13, -5.01978e-13, -8.17529e-13, -4.69764e-08, -1.34193e-13, -5.01978e-13, -1.34193e-13, -4.69804e-08
6, 26, 3.065, 5720.92, -9.03446e-14, 3.54221e-14, -9.03446e-14, -4.66144e-08, 2.94483e-13, 3.54221e-14, 2.94483e-13, -4.66221e-08
6, 27, 3.0675, 6380.75, -2.78319e-13, -9.62998e-14, -2.78319e-13, -4.62594e-08, -2.50003e-13, -9.62998e-14, -2.50003e-13, -4.62595e-08
6, 28, 3.07, 7030.93, -6.27207e-13, -1.19308e-13, -6.27207e-13, -4.59256e-08, 2.64524e-13, -1.19308e-13, 2.64524e-13, -4.59257e-08
6, 29, 3.0725, 7671.63, -1.04171e-13, -6.30092e-14, -1.04171e-13, -4.55723e-08, -1.15508e-13, -6.30092e-14, -1.15508e-13, -4.55658e-08
6, 30, 3.075, 8303.04, -3.20592e-14, -8.02833e-14, -3.20592e-14, -4.5238e-08, -1.41993e-13, -8.02833e-14, -1.41993e-13, -4.52382e-08
6, 31, 3.0775, 8925.34, -2.56972e-14, 4.61175e-14, -2.56972e-14, -4.48823e-08, -5.15859e-14, 4.61175e-14, -5.15859e-14, -4.4875e-08
6, 32, 3.08, 9538.7, -5.39904e-14, -6.15726e-14, -5.39904e-14, -4.45382e-08, -1.14255e-13, -6.15726e-14, -1.14255e-13, -4.45384e-08
6, 33, 3.0825, 10143.3, -4.58337e-13, -4.84806e-13, -4.58337e-13, -4.41901e-08, -2.45183e-13, -4.84806e-13, -2.45183e-13, -4.41885e-08
6, 34, 3.085, 10739.3, -9.02701e-14, -9.84071e-14, -9.02701e-14, -4.3863e-08, -1.37525e-13, -9.84071e-14, -1.37525e-13, -4.38633e-08
6, 35, 3.0875, 11326.9, -6.15901e-14, -6.01911e-14, -6.15901e-14, -4.35399e-08, -1.68311e-13, -6.01911e-14, -1.68311e-13, -4.35402e-08
6, 36, 3.09, 11906.3, -1.08223e-12, -1.05516e-12, -1.08223e-12, -4.32095e-08, -1.06275e-13, -1.05516e-12, -1.06275e-13, -4.32097e-08
6, 37, 3.0925, 12477.6, -2.38884e-13, 3.44478e-13, -2.38884e-13, -4.28971e-08, 2.26468e-13, 3.44478e-13, 2.26468e-13, -4.28973e-08
6, 38, 3.095, 13041, 4.47023e-13, -3.50638e-13, 4.47023e-13, -4.25489e-08, -1.56625e-13, -3.50638e-13, -1.56625e-13, -4.25491e-08
6, 39, 3.0975, 13596.6, -1.50052e-13, -5.40711e-13, -1.50052e-13, -4.2216e-08, -6.26418e-13, -5.40711e-13, -6.26418e-13, -4.2218e-08
6, 40, 3.1, 14144.7, 1.5062e-13, 1.26317e-14, 1.5062e-13, -4.19144e-08, -2.55003e-12, 1.26317e-14, -2.55003e-12, -4.19108e-08
6, 41, 3.1025, 14685.4, -1.18166e-13, -1.23759e-13, -1.18166e-13, -4.15947e-08, -2.15853e-13, -1.23759e-13, -2.15853e-13, -4.15963e-08
6, 42, 3.105, 15218.9, 8.39511e-13, 9.07997e-13, 8.39511e-13, -4.13044e-08, 1.49002e-14, 9.07997e-13, 1.49002e-14, -4.13047e-08
6, 43, 3.1075, 15745.2, -1.5696e-12, -1.53004e-13, -1.5696e-12, -4.09881e-08, -8.53954e-14, -1.53004e-13, -8.53954e-14, -4.09883e-08
6, 44, 3.11, 16264.6, 1.49831e-12, 9.49572e-13, 1.49831e-12, -4.0676e-08, 4.02637e-13, 9.49572e-13, 4.02637e-13, -4.06718e-08
6, 45, 3.1125, 16777.3, 4.30116e-13, 3.78094e-13, 4.30116e-13, -4.03686e-08, -2.19976e-13, 3.78094e-13, -2.19976e-13, -4.03689e-08
6, 46, 3.115, 17283.4, -1.57854e-13, -1.02379e-13, -1.57854e-13, -4.00736e-08, -2.11562e-13, -1.02379e-13, -2.11562e-13, -4.0081e-08
6, 47, 3.1175, 17782.9, 2.67935e-13, 3.24426e-13, 2.67935e-13, -3.97923e-08, 1.65218e-14, 3.24426e-13, 1.65218e-14, -3.97925e-08
6, 48, 3.12, 18276.2, -3.29498e-14, 1.31981e-13, -3.29498e-14, -3.94772e-08, -1.87339e-14, 1.31981e-13, -1.87339e-14, -3.94794e-08
6, 49, 3.1225, 18763.3, 8.43374e-14, 4.99276e-13, 8.43374e-14, -3.91957e-08, 1.53021e-12, 4.99276e-13, 1.53021e-12, -3.91993e-08
6, 50, 3.125, 19244.4, 6.55808e-14, 2.07447e-13, 6.55808e-14, -3.89082e-08, 1.47155e-13, 2.07447e-13, 1.47155e-13, -3.89028e-08
6, 51, 3.125, 19244.4, 1.75311e-13, 2.07635e-14, 1.75311e-13, -4.56415e-12, 6.2769e-13, 2.07635e-14, 6.2769e-13, -4.66449e-12
7, 1, 3.1275, 18261.6, -1.19002e-12, -1.366e-12, -1.19002e-12, -3.84466e-08, -9.97517e-14, -1.366e-12, -9.97517e-14, -3.84449e-08
7, 2, 3.13, 17297.9, 3.78674e-13, 1.61146e-13, 3.78674e-13, -3.86963e-08, -1.89206e-12, 1.61146e-13, -1.89206e-12, -3.86972e-08
7, 3, 3.1325, 16352.5, 5.05534e-13, 7.34649e-13, 5.05534e-13, -3.89868e-08, -3.45026e-13, 7.34649e-13, -3.45026e-13, -3.89859e-08
7, 4, 3.135, 15424.9, 9.72809e-14, 1.4622e-13, 9.72809e-14, -3.92699e-08, -1.56411e-13, 1.4622e-13, -1.56411e-13, -3.927e-08
7, 5, 3.1375, 14514.4, -4.42419e-14, -1.27555e-13, -4.42419e-14, -3.95548e-08, -2.33883e-13, -1.27555e-13, -2.33883e-13, -3.95621e-08
7, 6, 3.14, 13620.2, 3.31835e-13, 2.07975e-13, 3.31835e-13, -3.98747e-08, -5.15603e-14, 2.07975e-13, -5.15603e-14, -3.98748e-08
7, 7, 3.1425, 12741.9, 2.2576e-14, -1.59424e-13, 2.2576e-14, -4.01661e-08, -6.79741e-14, -1.59424e-13, -6.79741e-14, -4.01662e-08
7, 8, 3.145, 11878.7, -1.02104e-13, -1.42923e-13, -1.02104e-13, -4.04705e-08, -1.52223e-13, -1.42923e-13, -1.52223e-13, -4.04705e-08
7, 9, 3.1475, 11030.2, 2.53372e-13, 6.62192e-13, 2.53372e-13, -4.07844e-08, 1.81805e-12, 6.62192e-13, 1.81805e-12, -4.07826e-08
7, 10, 3.15, 10195.6, 1.47933e-12, 1.26483e-12, 1.47933e-12, -4.10785e-08, 3.84441e-14, 1.26483e-12, 3.84441e-14, -4.10748e-08
7, 11, 3.1525, 9374.55, 8.56691e-13, 1.48618e-12, 8.56691e-13, -4.13961e-08, 8.90793e-13, 1.48618e-12, 8.90793e-13, -4.13962e-08
7, 12, 3.155, 8566.42, 1.53112e-13, 1.89092e-14, 1.53112e-13, -4.17047e-08, 7.3699e-15, 1.89092e-14, 7.3699e-15, -4.17048e-08
7, 13, 3.1575, 7770.69, 3.50497e-13, 2.94583e-13, 3.50497e-13, -4.2043e-08, -1.72302e-13, 2.94583e-13, -1.72302e-13, -4.20431e-08
7, 14, 3.16, 6986.86, 5.9323e-14, -1.12973e-14, 5.9323e-14, -4.23338e-08, -1.72534e-14, -1.12973e-14, -1.72534e-14, -4.23416e-08
7, 15, 3.1625, 6214.43, 4.32209e-14, -1.52806e-14, 4.32209e-14, -4.26645e-08, -9.34031e-14, -1.52806e-14, -9.34031e-14, -4.26645e-08
7, 16, 3.165, 5452.91, 1.94892e-14, 1.64889e-14, 1.94892e-14, -4.29828e-08, -1.0259e-13, 1.64889e-14, -1.0259e-13, -4.29827e-08
7, 17, 3.1675, 4701.84, 1.61112e-14, 3.96574e-15, 1.61112e-14, -4.32921e-08, -6.95707e-15, 3.96574e-15, -6.95707e-15, -4.32921e-08
7, 18, 3.17, 3960.75, 2.29839e-14, -2.54697e-14, 2.29839e-14, -4.36373e-08, -5.05363e-14, -2.54697e-14, -5.05363e-14, -4.36448e-08
7, 19, 3.1725, 3229.2, 4.61695e-14, -9.99374e-15, 4.61695e-14, -4.39761e-08, -3.70999e-14, -9.99374e-15, -3.70999e-14, -4.3976e-08
7, 20, 3.175, 2506.74, 9.99773e-15, -2.89509e-14, 9.99773e-15, -4.43125e-08, -3.88712e-14, -2.89509e-14, -3.88712e-14, -4.43143e-08
7, 21, 3.1775, 1792.96, 2.47766e-13, 1.62105e-13, 2.47766e-13, -4.46356e-08, -3.45773e-15, 1.62105e-13, -3.45773e-15, -4.46337e-08
7, 22, 3.18, 1087.44, -3.58751e-13, 1.54233e-14, -3.58751e-13, -4.49677e-08, -8.46622e-14, 1.54233e-14, -8.46622e-14, -4.49732e-08
7, 23, 3.1825, 389.771, 3.02627e-13, 4.61656e-13, 3.02627e-13, -4.53167e-08, 2.07817e-13, 4.61656e-13, 2.07817e-13, -4.53165e-08
7, 24, 3.185, -300.445, 1.24298e-12, 6.92401e-13, 1.24298e-12, -4.56453e-08, -8.73107e-13, 6.92401e-13, -8.73107e-13, -4.56414e-08
7, 25, 3.1875, -983.596, 7.64432e-15, -1.39435e-14, 7.64432e-15, -4.59811e-08, -1.12891e-13, -1.39435e-14, -1.12891e-13, -4.59828e-08
7, 26, 3.19, -1660.06, -5.27229e-14, -1.03164e-13, -5.27229e-14, -4.63356e-08, -1.18436e-13, -1.03164e-13, -1.18436e-13, -4.63354e-08
7, 27, 3.1925, -2330.21, -3.60357e-13, -4.03237e-13, -3.60357e-13, -4.66902e-08, -8.10466e-14, -4.03237e-13, -8.10466e-14, -4.66938e-08
7, 28, 3.195, -2994.41, -8.09683e-14, -1.01176e-13, -8.09683e-14, -4.69987e-08, -1.00379e-13, -1.01176e-13, -1.00379e-13, -4.69986e-08
7, 29, 3.1975, -3653.02, -4.11399e-14, -7.80918e-14, -4.11399e-14, -4.74166e-08, -7.62592e-14, -7.80918e-14, -7.62592e-14, -4.74164e-08
7, 30, 3.2, -4306.39, -5.64201e-14, -7.68318e-14, -5.64201e-14, -4.77371e-08, -1.105e-13, -7.68318e-14, -1.105e-13, -4.77369e-08
7, 31, 3.2025, -4954.86, 1.35081e-14, -1.50241e-14, 1.35081e-14, -4.80743e-08, -1.15597e-13, -1.50241e-14, -1.15597e-13, -4.80742e-08
7, 32, 3.205, -5598.77, -5.65206e-14, -5.14415e-14, -5.65206e-14, -4.84393e-08, -1.48924e-13, -5.14415e-14, -1.48924e-13, -4.84391e-08
7, 33, 3.2075, -6238.46, -4.1508e-13, -4.61835e-13, -4.1508e-13, -4.88278e-08, -7.62464e-14, -4.61835e-13, -7.62464e-14, -4.88277e-08
7, 34, 3.21, -6874.25, -1.22131e-12, -3.30901e-13, -1.22131e-12, -4.91779e-08, 9.85405e-13, -3.30901e-13, 9.85405e-13, -4.91778e-08
7, 35, 3.2125, -7506.47, -6.76241e-14, -1.11405e-14, -6.76241e-14, -4.94977e-08, -1.02228e-13, -1.11405e-14, -1.02228e-13, -4.95125e-08
7, 36, 3.215, -8135.44, -6.64271e-14, -2.53071e-14, -6.64271e-14, -4.98714e-08, -8.53287e-14, -2.53071e-14, -8.53287e-14, -4.9871e-08
7, 37, 3.2175, -8761.46, 4.03444e-13, -4.43761e-16, 4.03444e-13, -5.01983e-08, -2.74311e-12, -4.43761e-16, -2.74311e-12, -5.02129e-08
7, 38, 3.22, -9384.86, -1.26281e-12, -7.24257e-13, -1.26281e-12, -5.05652e-08, 2.05877e-12, -7.24257e-13, 2.05877e-12, -5.0559e-08
7, 39, 3.2225, -10005.9, 4.79264e-14, 1.40918e-12, 4.79264e-14, -5.09152e-08, 5.36278e-14, 1.40918e-12, 5.36278e-14, -5.09148e-08
7, 40, 3.225, -10625, -1.18648e-13, -1.23126e-13, -1.18648e-13, -5.1294e-08, -1.22031e-12, -1.23126e-13, -1.22031e-12, -5.12936e-08
7, 41, 3.2275, -11242.4, -6.44294e-14, -2.45504e-13, -6.44294e-14, -5.16378e-08, 1.53577e-12, -2.45504e-13, 1.53577e-12, -5.163e-08
7, 42, 3.23, -11858.3, -9.62739e-14, -2.13661e-14, -9.62739e-14, -5.19804e-08, -8.23909e-14, -2.13661e-14, -8.23909e-14, -5.19801e-08
7, 43, 3.2325, -12473.2, -5.29236e-14, 2.32836e-14, -5.29236e-14, -5.23229e-08, -3.12632e-14, 2.32836e-14, -3.12632e-14, -5.23153e-08
7, 44, 3.235, -13087.2, 6.85227e-13, -5.55485e-14, 6.85227e-13, -5.26482e-08, 6.95139e-13, -5.55485e-14, 6.95139e-13, -5.26537e-08
7, 45, 3.2375, -13700.7, -3.9926e-13, -2.85736e-13, -3.9926e-13, -5.29969e-08, 5.52495e-13, -2.85736e-13, 5.52495e-13, -5.29966e-08
7, 46, 3.24, -14314, 2.94077e-14, -2.26564e-14, 2.94077e-14, -5.33019e-08, -1.79411e-13, -2.26564e-14, -1.79411e-13, -5.33016e-08
7, 47, 3.2425, -14927.4, -1.91663e-13, -9.49115e-14, -1.91663e-13, -5.3669e-08, -1.669e-14, -9.49115e-14, -1.669e-14, -5.36688e-08
7, 48, 3.245, -15541.2, 2.52836e-13, -2.85728e-14, 2.52836e-13, -5.39779e-08, 2.4035e-12, -2.85728e-14, 2.4035e-12, -5.39849e-08
7, 49, 3.2475, -16155.6, -3.69567e-14, -8.63699e-14, -3.69567e-14, -5.43076e-08, 2.71912e-13, -8.63699e-14, 2.71912e-13, -5.43073e-08
7, 50, 3.25, -16771.1, 5.69569e-13, 4.54437e-13, 5.69569e-13, -5.46196e-08, -3.58005e-13, 4.54437e-13, -3.58005e-13, -5.46192e-08
7, 51, 3.25, -16771.1, -6.53473e-14, -1.82592e-13, -6.53473e-14, -3.26235e-11, 2.23518e-13, -1.82592e-13, 2.23518e-13, -9.54626e-12
8, 1, 3.25125, -15876.5, -2.00592e-13, -1.9141e-13, -2.00592e-13, -5.5631e-08, -1.87155e-13, -1.9141e-13, -1.87155e-13, -5.56346e-08
8, 2, 3.2525, -14989.6, 1.41636e-13, 7.04663e-14, 1.41636e-13, -5.52948e-08, 7.32022e-13, 7.04663e-14, 7.32022e-13, -5.52945e-08
8, 3, 3.25375, -14110.3, -2.29741e-14, 2.33214e-13, -2.29741e-14, -5.49611e-08, 1.48081e-12, 2.33214e-13, 1.48081e-12, -5.49608e-08
8, 4, 3.255, -13238.5, 1.21779e-13, 4.23101e-14, 1.21779e-13, -5.4653e-08, -2.17925e-13, 4.23101e-14, -2.17925e-13, -5.46414e-08
8, 5, 3.25625, -12374.1, -4.095e-14, 2.85584e-14, -4.095e-14, -5.43183e-08, 2.60998e-14, 2.85584e-14, 2.60998e-14, -5.43181e-08
8, 6, 3.2575, -11516.9, 3.27935e-14, 1.48463e-14, 3.27935e-14, -5.39671e-08, -1.06762e-13, 1.48463e-14, -1.06762e-13, -5.3967e-08
8, 7, 3.25875, -10666.9, -1.25563e-13, -1.29486e-13, -1.25563e-13, -5.36184e-08, -1.69626e-13, -1.29486e-13, -1.69626e-13, -5.3624e-08
8, 8, 3.26, -9824.01, 3.98074e-14, 1.57291e-13, 3.98074e-14, -5.32359e-08, 8.59295e-14, 1.57291e-13, 8.59295e-14, -5.32415e-08
8, 9, 3.26125, -8988.08, 5.25968e-14, 1.95852e-13, 5.25968e-14, -5.28974e-08, 1.08368e-13, 1.95852e-13, 1.08368e-13, -5.28971e-08
8, 10, 3.2625, -8159.04, 1.03748e-13, -7.45599e-14, 1.03748e-13, -5.25196e-08, -2.38695e-13, -7.45599e-14, -2.38695e-13, -5.25193e-08
8, 11, 3.26375, -7336.8, -6.28495e-14, 9.27748e-15, -6.28495e-14, -5.21703e-08, 2.87295e-13, 9.27748e-15, 2.87295e-13, -5.21831e-08
8, 12, 3.265, -6521.27, 1.45251e-14, -2.93908e-14, 1.45251e-14, -5.18181e-08, -9.32943e-14, -2.93908e-14, -9.32943e-14, -5.18178e-08
8, 13, 3.26625, -5712.38, 4.06125e-14, 8.82484e-15, 4.06125e-14, -5.14432e-08, 1.77483e-14, 8.82484e-15, 1.77483e-14, -5.14429e-08
8, 14, 3.2675, -4910.02, -3.0223e-13, -1.10275e-12, -3.0223e-13, -5.1087e-08, -1.0645e-12, -1.10275e-12, -1.0645e-12, -5.10867e-08
8, 15, 3.26875, -4114.14, 1.25587e-13, 1.79743e-13, 1.25587e-13, -5.07357e-08, -5.88465e-14, 1.79743e-13, -5.88465e-14, -5.07485e-08
8, 16, 3.27, -3324.64, -1.63865e-13, -2.6556e-13, -1.63865e-13, -5.0349e-08, -3.00603e-13, -2.6556e-13, -3.00603e-13, -5.03486e-08
8, 17, 3.27125, -2541.45, 9.56878e-15, 5.09689e-14, 9.56878e-15, -5.00082e-08, 2.25427e-12, 5.09689e-14, 2.25427e-12, -5.00078e-08
8, 18, 3.2725, -1764.5, -2.21507e-14, 3.23488e-14, -2.21507e-14, -4.96456e-08, 2.13987e-15, 3.23488e-14, 2.13987e-15, -4.96303e-08
8, 19, 3.27375, -993.721, -5.42701e-14, -6.86224e-14, -5.42701e-14, -4.92566e-08, -1.32464e-13, -6.86224e-14, -1.32464e-13, -4.92563e-08
8, 20, 3.275, -229.03, 5.53935e-13, 1.53163e-12, 5.53935e-13, -4.89102e-08, 1.29711e-12, 1.53163e-12, 1.29711e-12, -4.89099e-08
8, 21, 3.27625, 529.637, -8.21655e-13, -9.33373e-13, -8.21655e-13, -4.85512e-08, 1.80089e-13, -9.33373e-13, 1.80089e-13, -4.85509e-08
8, 22, 3.2775, 1282.35, 1.98826e-13, 4.71937e-13, 1.98826e-13, -4.81621e-08, 3.49482e-13, 4.71937e-13, 3.49482e-13, -4.81619e-08
8, 23, 3.27875, 2029.17, -1.59804e-14, 3.36953e-14, -1.59804e-14, -4.78136e-08, 8.36223e-13, 3.36953e-14, 8.36223e-13, -4.78284e-08
8, 24, 3.28, 2770.17, -2.23612e-14, 1.79961e-14, -2.23612e-14, -4.74663e-08, -3.42126e-14, 1.79961e-14, -3.42126e-14, -4.74697e-08
8, 25, 3.28125, 3505.42, 8.12299e-13, 4.72266e-13, 8.12299e-13, -4.71249e-08, 8.42749e-15, 4.72266e-13, 8.42749e-15, -4.71246e-08
8, 26, 3.2825, 4234.97, -1.42497e-14, 4.23378e-14, -1.42497e-14, -4.67473e-08, 4.61777e-13, 4.23378e-14, 4.61777e-13, -4.67507e-08
8, 27, 3.28375, 4958.88, -1.23757e-14, 2.51471e-14, -1.23757e-14, -4.64205e-08, -1.48012e-14, 2.51471e-14, -1.48012e-14, -4.64201e-08
8, 28, 3.285, 5677.23, -1.21184e-14, 2.69265e-14, -1.21184e-14, -4.60788e-08, -1.10877e-14, 2.69265e-14, -1.10877e-14, -4.60785e-08
8, 29, 3.28625, 6390.06, -5.28957e-13, -1.49537e-13, -5.28957e-13, -4.57205e-08, -5.83355e-13, -1.49537e-13, -5.83355e-13, -4.57201e-08
8, 30, 3.2875, 7097.45, -2.30823e-13, -1.53128e-13, -2.30823e-13, -4.53653e-08, -1.21498e-13, -1.53128e-13, -1.21498e-13, -4.5364e-08
8, 31, 3.28875, 7799.44, -5.46052e-15, 1.11861e-14, -5.46052e-15, -4.50089e-08, -1.07382e-14, 1.11861e-14, -1.07382e-14, -4.50114e-08
8, 32, 3.29, 8496.09, 6.23108e-14, 5.60949e-13, 6.23108e-14, -4.46983e-08, -5.49142e-13, 5.60949e-13, -5.49142e-13, -4.4698e-08
8, 33, 3.29125, 9187.47, 1.86135e-14, 3.61975e-14, 1.86135e-14, -4.43523e-08, 6.15409e-14, 3.61975e-14, 6.15409e-14, -4.43519e-08
8, 34, 3.2925, 9873.62, 3.38041e-14, 4.63684e-13, 3.38041e-14, -4.40091e-08, -1.17763e-13, 4.63684e-13, -1.17763e-13, -4.40088e-08
8, 35, 3.29375, 10554.6, 3.5776e-14, -2.17482e-13, 3.5776e-14, -4.36863e-08, -4.1624e-13, -2.17482e-13, -4.1624e-13, -4.3686e-08
8, 36, 3.295, 11230.5, -9.7059e-14, -1.49367e-14, -9.7059e-14, -4.33651e-08, 1.88985e-14, -1.49367e-14, 1.88985e-14, -4.33647e-08
8, 37, 3.29625, 11901.3, -7.69979e-13, -4.8129e-13, -7.69979e-13, -4.30349e-08, 1.14461e-12, -4.8129e-13, 1.14461e-12, -4.30346e-08
8, 38, 3.2975, 12567.1, 1.49617e-13, -2.80569e-13, 1.49617e-13, -4.27259e-08, -1.13265e-13, -2.80569e-13, -1.13265e-13, -4.27256e-08
8, 39, 3.29875, 13228, 4.24337e-13, 1.82592e-13, 4.24337e-13, -4.23875e-08, 4.27337e-13, 1.82592e-13, 4.27337e-13, -4.23872e-08
8, 40, 3.3, 13883.9, -1.6492e-13, 1.37073e-13, -1.6492e-13, -4.20532e-08, -1.93406e-13, 1.37073e-13, -1.93406e-13, -4.20529e-08
8, 41, 3.30125, 14535, 2.95954e-14, 2.69886e-14, 2.95954e-14, -4.17028e-08, -5.12783e-14, 2.69886e-14, -5.12783e-14, -4.17025e-08
8, 42, 3.3025, 15181.3, -3.72481e-14, -7.61326e-15, -3.72481e-14, -4.14184e-08, -2.527e-14, -7.61326e-15, -2.527e-14, -4.14181e-08
8, 43, 3.30375, 15822.9, 3.84418e-13, 9.03685e-13, 3.84418e-13, -4.11284e-08, -4.3738e-14, 9.03685e-13, -4.3738e-14, -4.11245e-08
8, 44, 3.305, 16459.8, 8.97691e-13, 2.75917e-13, 8.97691e-13, -4.08098e-08, -1.05905e-12, 2.75917e-13, -1.05905e-12, -4.08104e-08
8, 45, 3.30625, 17092, -4.70003e-14, 3.99907e-13, -4.70003e-14, -4.05017e-08, 2.29489e-12, 3.99907e-13, 2.29489e-12, -4.05017e-08
8, 46, 3.3075, 17719.6, 3.77872e-13, 7.91214e-13, 3.77872e-13, -4.02013e-08, 1.08482e-13, 7.91214e-13, 1.08482e-13, -4.02029e-08
8, 47, 3.30875, 18342.7, -2.81979e-14, -8.90202e-15, -2.81979e-14, -3.9882e-08, -4.96477e-14, -8.90202e-15, -4.96477e-14, -3.98818e-08
8, 48, 3.31, 18961.3, -3.77654e-13, -5.38926e-13, -3.77654e-13, -3.95901e-08, -8.91298e-13, -5.38926e-13, -8.91298e-13, -3.95898e-08
8, 49, 3.31125, 19575.4, 1.31751e-13, 2.52716e-13, 1.31751e-13, -3.93264e-08, -1.46282e-13, 2.52716e-13, -1.46282e-13, -3.93261e-08
8, 50, 3.3125, 20185.1, -2.99917e-14, 3.02378e-13, -2.99917e-14, -3.90063e-08, -8.21051e-14, 3.02378e-13, -8.21051e-14, -3.90115e-08
8, 51, 3.3125, 20185.1, -2.10017e-13, -7.74887e-14, -2.10017e-13, 1.28335e-11, 3.28836e-13, -7.74887e-14, 3.28836e-13, 1.21911e-11
