stage, timestep, time, Stress11, Stress12, Stress13, Stress21, Stress22, Stress23, Stress31, Stress32, Stress33
0, 0, 0, 0, 0, 0, 0, 0, 0, 0, 0, 0
0, 1, 0.01, 179.978, 1.24222e-11, 3.07257e-12, 1.24222e-11, -5.88419e-09, -2.36641e-12, 3.07257e-12, -2.36641e-12, -5.86306e-09
0, 2, 0.02, 359.862, 1.25245e-11, 2.79584e-12, 1.25245e-11, -5.86144e-09, -2.66575e-12, 2.79584e-12, -2.66575e-12, -5.83972e-09
0, 3, 0.03, 539.656, 1.25402e-11, 2.67323e-12, 1.25402e-11, -5.84054e-09, -2.95372e-12, 2.67323e-12, -2.95372e-12, -5.81823e-09
0, 4, 0.04, 719.365, 1.2425e-11, 2.3723e-12, 1.2425e-11, -5.81975e-09, -3.13846e-12, 2.3723e-12, -3.13846e-12, -5.79815e-09
0, 5, 0.05, 898.993, 1.27922e-11, 2.01555e-12, 1.27922e-11, -5.79679e-09, -3.227e-12, 2.01555e-12, -3.227e-12, -5.77451e-09
0, 6, 0.06, 1078.54, 1.27883e-11, 1.93419e-12, 1.27883e-11, -5.77816e-09, -3.62321e-12, 1.93419e-12, -3.62321e-12, -5.75679e-09
0, 7, 0.07, 1258.02, 1.38338e-11, 8.19864e-13, 1.38338e-11, -5.75328e-09, -3.16822e-12, 8.19864e-13, -3.16822e-12, -5.72997e-09
0, 8, 0.08, 1437.43, 1.41922e-11, 6.00298e-13, 1.41922e-11, -5.7362e-09, -3.49818e-12, 6.00298e-13, -3.49818e-12, -5.71223e-09
0, 9, 0.09, 1616.77, 1.41611e-11, 6.01543e-13, 1.41611e-11, -5.71372e-09, -3.79671e-12, 6.01543e-13, -3.79671e-12, -5.68907e-09
0, 10, 0.1, 1796.05, 1.43063e-11, 5.63903e-14, 1.43063e-11, -5.69677e-09, -4.09997e-12, 5.63903e-14, -4.09997e-12, -5.6719e-09
0, 11, 0.11, 1975.28, 1.45306e-11, -3.68565e-13, 1.45306e-11, -5.67468e-09, -4.36025e-12, -3.68565e-13, -4.36025e-12, -5.65003e-09
0, 12, 0.12, 2154.45, 1.43632e-11, -8.4994e-13, 1.43632e-11, -5.65307e-09, -4.51779e-12, -8.4994e-13, -4.51779e-12, -5.62829e-09
0, 13, 0.13, 2333.56, 1.47924e-11, -9.60332e-13, 1.47924e-11, -5.6352e-09, -5.00249e-12, -9.60332e-13, -5.00249e-12, -5.60952e-09
0, 14, 0.14, 2512.64, 1.50322e-11, -1.27144e-12, 1.50322e-11, -5.61579e-09, -5.42421e-12, -1.27144e-12, -5.42421e-12, -5.59076e-09
0, 15, 0.15, 2691.67, 1.50024e-11, -1.59491e-12, 1.50024e-11, -5.59249e-09, -5.51135e-12, -1.59491e-12, -5.51135e-12, -5.56675e-09
0, 16, 0.16, 2870.66, 1.50135e-11, -1.89799e-12, 1.50135e-11, -5.57374e-09, -5.81036e-12, -1.89799e-12, -5.81036e-12, -5.54787e-09
0, 17, 0.17, 3049.61, 1.53415e-11, -2.02427e-12, 1.53415e-11, -5.55422e-09, -6.346e-12, -2.02427e-12, -6.346e-12, -5.52816e-09
0, 18, 0.18, 3228.53, 1.55941e-11, -2.47716e-12, 1.55941e-11, -5.53561e-09, -7.00825e-12, -2.47716e-12, -7.00825e-12, -5.50927e-09
0, 19, 0.19, 3407.42, 1.57188e-11, -2.85076e-12, 1.57188e-11, -5.51434e-09, -6.98623e-12, -2.85076e-12, -6.98623e-12, -5.4895e-09
0, 20, 0.2, 3586.29, 1.59614e-11, -3.25737e-12, 1.59614e-11, -5.49585e-09, -7.55121e-12, -3.25737e-12, -7.55121e-12, -5.46924e-09
0, 21, 0.21, 3765.13, 1.62072e-11, -3.63216e-12, 1.62072e-11, -5.47621e-09, -8.02618e-12, -3.63216e-12, -8.02618e-12, -5.44932e-09
0, 22, 0.22, 3943.95, 1.63422e-11, -4.37157e-12, 1.63422e-11, -5.45433e-09, -8.22652e-12, -4.37157e-12, -8.22652e-12, -5.42701e-09
0, 23, 0.23, 4122.76, 1.62977e-11, -4.62869e-12, 1.62977e-11, -5.43798e-09, -8.55958e-12, -4.62869e-12, -8.55958e-12, -5.41093e-09
0, 24, 0.24, 4301.55, 1.64392e-11, -4.95228e-12, 1.64392e-11, -5.4188e-09, -9.0045e-12, -4.95228e-12, -9.0045e-12, -5.39167e-09
0, 25, 0.25, 4480.33, 1.65515e-11, -5.48572e-12, 1.65515e-11, -5.3997e-09, -9.53799e-12, -5.48572e-12, -9.53799e-12, -5.37313e-09
0, 26, 0.26, 4659.11, 1.70638e-11, -5.89545e-12, 1.70638e-11, -5.3807e-09, -9.60994e-12, -5.89545e-12, -9.60994e-12, -5.35374e-09
0, 27, 0.27, 4837.88, 1.68203e-11, -6.58592e-12, 1.68203e-11, -5.36325e-09, -1.0007e-11, -6.58592e-12, -1.0007e-11, -5.33604e-09
0, 28, 0.28, 5016.64, 1.68954e-11, -6.98918e-12, 1.68954e-11, -5.34486e-09, -1.08686e-11, -6.98918e-12, -1.08686e-11, -5.31779e-09
0, 29, 0.29, 5195.41, 1.72544e-11, -7.56888e-12, 1.72544e-11, -5.32676e-09, -1.11085e-11, -7.56888e-12, -1.11085e-11, -5.29864e-09
0, 30, 0.3, 5374.18, 1.71599e-11, -8.01491e-12, 1.71599e-11, -5.30742e-09, -1.18084e-11, -8.01491e-12, -1.18084e-11, -5.27949e-09
0, 31, 0.31, 5552.96, 1.73283e-11, -8.80038e-12, 1.73283e-11, -5.28895e-09, -1.1869e-11, -8.80038e-12, -1.1869e-11, -5.26136e-09
0, 32, 0.32, 5731.75, 1.51629e-11, -4.74496e-12, 1.51629e-11, -5.27506e-09, -1.31035e-11, -4.74496e-12, -1.31035e-11, -5.24913e-09
0, 33, 0.33, 5910.55, 1.38396e-11, -1.775e-12, 1.38396e-11, -5.26173e-09, -1.3782e-11, -1.775e-12, -1.3782e-11, -5.23475e-09
0, 34, 0.34, 6089.36, 1.3829e-11, -2.50843e-12, 1.3829e-11, -5.24443e-09, -1.42326e-11, -2.50843e-12, -1.42326e-11, -5.21772e-09
0, 35, 0.35, 6268.19, 1.34321e-11, -3.02606e-12, 1.34321e-11, -5.22483e-09, -1.45666e-11, -3.02606e-12, -1.45666e-11, -5.19896e-09
0, 36, 0.36, 6447.04, 1.3574e-11, -3.11492e-12, 1.3574e-11, -5.20873e-09, -1.53769e-11, -3.11492e-12, -1.53769e-11, -5.18178e-09
0, 37, 0.37, 6625.91, 1.39354e-11, -3.71394e-12, 1.39354e-11, -5.19184e-09, -1.58206e-11, -3.71394e-12, -1.58206e-11, -5.16602e-09
0, 38, 0.38, 6804.8, 1.35186e-11, -3.92894e-12, 1.35186e-11, -5.17677e-09, -1.64419e-11, -3.92894e-12, -1.64419e-11, -5.15053e-09
0, 39, 0.39, 6983.73, 1.35901e-11, -4.5689e-12, 1.35901e-11, -5.156e-09, -1.69507e-11, -4.5689e-12, -1.69507e-11, -5.12932e-09
0, 40, 0.4, 7162.68, 1.35097e-11, -5.058e-12, 1.35097e-11, -5.13842e-09, -1.73013e-11, -5.058e-12, -1.73013e-11, -5.11206e-09
0, 41, 0.41, 7341.66, 1.35836e-11, -5.40226e-12, 1.35836e-11, -5.12311e-09, -1.82682e-11, -5.40226e-12, -1.82682e-11, -5.09631e-09
0, 42, 0.42, 7520.68, 1.33828e-11, -5.98169e-12, 1.33828e-11, -5.1074e-09, -1.85486e-11, -5.98169e-12, -1.85486e-11, -5.08216e-09
0, 43, 0.43, 7699.73, 1.34012e-11, -6.45372e-12, 1.34012e-11, -5.09261e-09, -1.92157e-11, -6.45372e-12, -1.92157e-11, -5.06557e-09
0, 44, 0.44, 7878.82, 1.33762e-11, -6.90816e-12, 1.33762e-11, -5.07592e-09, -1.97346e-11, -6.90816e-12, -1.97346e-11, -5.04959e-09
0, 45, 0.45, 8057.95, 1.32652e-11, -7.25741e-12, 1.32652e-11, -5.05843e-09, -2.03648e-11, -7.25741e-12, -2.03648e-11, -5.0321e-09
0, 46, 0.46, 8237.12, 1.30444e-11, -7.5009e-12, 1.30444e-11, -5.04172e-09, -2.08359e-11, -7.5009e-12, -2.08359e-11, -5.0153e-09
0, 47, 0.47, 8416.34, 1.3082e-11, -8.53583e-12, 1.3082e-11, -5.02553e-09, -2.14072e-11, -8.53583e-12, -2.14072e-11, -5.0003e-09
0, 48, 0.48, 8595.61, 1.28473e-11, -8.73088e-12, 1.28473e-11, -5.01107e-09, -2.18416e-11, -8.73088e-12, -2.18416e-11, -4.98473e-09
0, 49, 0.49, 8774.92, 1.32221e-11, -9.25906e-12, 1.32221e-11, -4.99509e-09, -2.27349e-11, -9.25906e-12, -2.27349e-11, -4.96946e-09
0, 50, 0.5, 8954.29, 1.24129e-11, -1.00505e-11, 1.24129e-11, -4.97969e-09, -2.31775e-11, -1.00505e-11, -2.31775e-11, -4.95427e-09
1, 1, 0.52, 8595.61, -2.26024e-11, 1.88933e-11, -2.26024e-11, -1.91036e-08, 4.79487e-11, 1.88933e-11, 4.79487e-11, -1.91604e-08
1, 2, 0.54, 8237.12, -1.60477e-11, 3.63551e-12, -1.60477e-11, -1.92487e-08, 4.59794e-11, 3.63551e-12, 4.59794e-11, -1.93054e-08
1, 3, 0.56, 7878.82, -1.66928e-11, 2.23782e-12, -1.66928e-11, -1.94025e-08, 4.36721e-11, 2.23782e-12, 4.36721e-11, -1.94603e-08
1, 4, 0.58, 7520.68, -1.43962e-11, -5.96527e-12, -1.43962e-11, -1.95571e-08, 4.16968e-11, -5.96527e-12, 4.16968e-11, -1.96154e-08
1, 5, 0.6, 7162.68, -1.1723e-11, -1.33961e-11, -1.1723e-11, -1.97087e-08, 3.98667e-11, -1.33961e-11, 3.98667e-11, -1.97664e-08
1, 6, 0.62, 6804.8, -9.40275e-12, -2.05346e-11, -9.40275e-12, -1.9862e-08, 3.8246e-11, -2.05346e-11, 3.8246e-11, -1.9921e-08
1, 7, 0.64, 6447.04, -1.04657e-11, -2.07827e-11, -1.04657e-11, -2.002e-08, 3.59028e-11, -2.07827e-11, 3.59028e-11, -2.00786e-08
1, 8, 0.66, 6089.36, -1.14802e-11, -2.13086e-11, -1.14802e-11, -2.01807e-08, 3.37213e-11, -2.13086e-11, 3.37213e-11, -2.02389e-08
1, 9, 0.68, 5731.75, -1.22006e-11, -2.1429e-11, -1.22006e-11, -2.03446e-08, 3.14719e-11, -2.1429e-11, 3.14719e-11, -2.04014e-08
1, 10, 0.7, 5374.18, -1.29712e-11, -2.13552e-11, -1.29712e-11, -2.05077e-08, 2.94754e-11, -2.13552e-11, 2.94754e-11, -2.05636e-08
1, 11, 0.72, 5016.64, -1.42029e-11, -2.199e-11, -1.42029e-11, -2.06686e-08, 2.7558e-11, -2.199e-11, 2.7558e-11, -2.0724e-08
1, 12, 0.74, 4659.11, -1.44947e-11, -2.19753e-11, -1.44947e-11, -2.08359e-08, 2.55685e-11, -2.19753e-11, 2.55685e-11, -2.08907e-08
1, 13, 0.76, 4301.55, -1.21131e-11, -2.6648e-11, -1.21131e-11, -2.09956e-08, 2.66002e-11, -2.6648e-11, 2.66002e-11, -2.10422e-08
1, 14, 0.78, 3943.95, -1.31422e-11, -2.64631e-11, -1.31422e-11, -2.11632e-08, 2.41627e-11, -2.64631e-11, 2.41627e-11, -2.12095e-08
1, 15, 0.8, 3586.29, -1.35862e-11, -2.61901e-11, -1.35862e-11, -2.13314e-08, 2.24031e-11, -2.61901e-11, 2.24031e-11, -2.13768e-08
1, 16, 0.82, 3228.53, -1.41841e-11, -2.57651e-11, -1.41841e-11, -2.15029e-08, 2.03211e-11, -2.57651e-11, 2.03211e-11, -2.15476e-08
1, 17, 0.84, 2870.66, -1.46117e-11, -2.50813e-11, -1.46117e-11, -2.16729e-08, 1.86452e-11, -2.50813e-11, 1.86452e-11, -2.17154e-08
1, 18, 0.86, 2512.64, -1.50376e-11, -2.4781e-11, -1.50376e-11, -2.1844e-08, 1.70876e-11, -2.4781e-11, 1.70876e-11, -2.18866e-08
1, 19, 0.88, 2154.45, -1.50845e-11, -2.43095e-11, -1.50845e-11, -2.20189e-08, 1.53663e-11, -2.43095e-11, 1.53663e-11, -2.20599e-08
1, 20, 0.9, 1796.05, -1.56547e-11, -2.38248e-11, -1.56547e-11, -2.21926e-08, 1.39868e-11, -2.38248e-11, 1.39868e-11, -2.22327e-08
1, 21, 0.92, 1437.43, -1.57443e-11, -2.34863e-11, -1.57443e-11, -2.23697e-08, 1.26375e-11, -2.34863e-11, 1.26375e-11, -2.24077e-08
1, 22, 0.94, 1078.54, -1.59521e-11, -2.31069e-11, -1.59521e-11, -2.25418e-08, 1.08942e-11, -2.31069e-11, 1.08942e-11, -2.25797e-08
1, 23, 0.96, 719.365, -1.57738e-11, -2.26586e-11, -1.57738e-11, -2.27182e-08, 9.96108e-12, -2.26586e-11, 9.96108e-12, -2.27555e-08
1, 24, 0.98, 359.862, -1.56323e-11, -2.20453e-11, -1.56323e-11, -2.28985e-08, 8.29329e-12, -2.20453e-11, 8.29329e-12, -2.29338e-08
1, 25, 1, -1.52446e-08, -1.56988e-11, -2.14935e-11, -1.56988e-11, -2.30719e-08, 7.42059e-12, -2.14935e-11, 7.42059e-12, -2.31059e-08
1, 26, 1.02, -360.256, -1.59672e-11, -2.12029e-11, -1.59672e-11, -2.32538e-08, 6.61354e-12, -2.12029e-11, 6.61354e-12, -2.32872e-08
1, 27, 1.04, -720.943, -1.55259e-11, -2.02955e-11, -1.55259e-11, -2.34276e-08, 5.86214e-12, -2.02955e-11, 5.86214e-12, -2.34591e-08
1, 28, 1.06, -1082.1, -1.54566e-11, -1.9915e-11, -1.54566e-11, -2.36051e-08, 4.72132e-12, -1.9915e-11, 4.72132e-12, -2.3635e-08
1, 29, 1.08, -1443.76, -1.52575e-11, -1.94389e-11, -1.52575e-11, -2.37876e-08, 4.04347e-12, -1.94389e-11, 4.04347e-12, -2.38173e-08
1, 30, 1.1, -1805.96, -1.48592e-11, -1.89243e-11, -1.48592e-11, -2.39683e-08, 3.31282e-12, -1.89243e-11, 3.31282e-12, -2.39964e-08
1, 31, 1.12, -2168.76, -1.47149e-11, -1.84986e-11, -1.47149e-11, -2.41489e-08, 2.44775e-12, -1.84986e-11, 2.44775e-12, -2.41768e-08
1, 32, 1.14, -2532.18, -1.44333e-11, -1.77848e-11, -1.44333e-11, -2.43339e-08, 1.69523e-12, -1.77848e-11, 1.69523e-12, -2.43606e-08
1, 33, 1.16, -2896.28, -1.36661e-11, -1.71496e-11, -1.36661e-11, -2.45117e-08, 1.10007e-12, -1.71496e-11, 1.10007e-12, -2.45387e-08
1, 34, 1.18, -3261.1, -1.36555e-11, -1.69013e-11, -1.36555e-11, -2.46957e-08, 6.68483e-13, -1.69013e-11, 6.68483e-13, -2.47198e-08
1, 35, 1.2, -3626.69, -1.36184e-11, -1.59867e-11, -1.36184e-11, -2.48725e-08, -5.42844e-14, -1.59867e-11, -5.42844e-14, -2.48958e-08
1, 36, 1.22, -3993.09, -1.31556e-11, -1.58508e-11, -1.31556e-11, -2.50565e-08, -4.69336e-13, -1.58508e-11, -4.69336e-13, -2.508e-08
1, 37, 1.24, -4360.37, -1.29363e-11, -1.54058e-11, -1.29363e-11, -2.52365e-08, -4.14277e-13, -1.54058e-11, -4.14277e-13, -2.52607e-08
1, 38, 1.26, -4728.56, -1.25481e-11, -1.45843e-11, -1.25481e-11, -2.54159e-08, -9.06151e-13, -1.45843e-11, -9.06151e-13, -2.54355e-08
1, 39, 1.28, -5097.74, -1.24194e-11, -1.41662e-11, -1.24194e-11, -2.55974e-08, -1.51049e-12, -1.41662e-11, -1.51049e-12, -2.56172e-08
1, 40, 1.3, -5467.94, -1.18437e-11, -1.37032e-11, -1.18437e-11, -2.57765e-08, -1.55037e-12, -1.37032e-11, -1.55037e-12, -2.57975e-08
1, 41, 1.32, -5839.24, -1.17299e-11, -1.3104e-11, -1.17299e-11, -2.5955e-08, -1.50901e-12, -1.3104e-11, -1.50901e-12, -2.59739e-08
1, 42, 1.34, -6211.69, -1.13578e-11, -1.27259e-11, -1.13578e-11, -2.61303e-08, -2.04532e-12, -1.27259e-11, -2.04532e-12, -2.61501e-08
1, 43, 1.36, -6585.36, -1.07705e-11, -1.26139e-11, -1.07705e-11, -2.63042e-08, -2.03642e-12, -1.26139e-11, -2.03642e-12, -2.63241e-08
1, 44, 1.38, -6960.31, -1.07954e-11, -1.17893e-11, -1.07954e-11, -2.64796e-08, -2.04281e-12, -1.17893e-11, -2.04281e-12, -2.64964e-08
1, 45, 1.4, -7336.61, -1.03121e-11, -1.17281e-11, -1.03121e-11, -2.66515e-08, -2.66302e-12, -1.17281e-11, -2.66302e-12, -2.66675e-08
1, 46, 1.42, -7714.33, -2.07052e-10, -1.82948e-10, -2.07052e-10, -2.69805e-08, 7.79088e-11, -1.82948e-10, 7.79088e-11, -2.62252e-08
1, 47, 1.44, -8093.54, -1.98966e-10, -1.77658e-10, -1.98966e-10, -2.71456e-08, 7.25701e-11, -1.77658e-10, 7.25701e-11, -2.6423e-08
1, 48, 1.46, -8474.33, -1.91147e-10, -1.71857e-10, -1.91147e-10, -2.73078e-08, 6.74625e-11, -1.71857e-10, 6.74625e-11, -2.66174e-08
1, 49, 1.48, -8856.77, -1.82864e-10, -1.66346e-10, -1.82864e-10, -2.74642e-08, 6.30689e-11, -1.66346e-10, 6.30689e-11, -2.68071e-08
1, 50, 1.5, -9240.93, -1.75063e-10, -1.60597e-10, -1.75063e-10, -2.76213e-08, 5.86858e-11, -1.60597e-10, 5.86858e-11, -2.69925e-08
2, 1, 1.51, -8856.77, 1.72848e-10, 1.54442e-10, 1.72848e-10, -2.77686e-08, -5.37493e-11, 1.54442e-10, -5.37493e-11, -2.83536e-08
2, 2, 1.52, -8474.33, 1.8104e-10, 1.59797e-10, 1.8104e-10, -2.76042e-08, -5.73848e-11, 1.59797e-10, -5.73848e-11, -2.82172e-08
2, 3, 1.53, -8093.54, 1.89568e-10, 1.65281e-10, 1.89568e-10, -2.74387e-08, -6.08213e-11, 1.65281e-10, -6.08213e-11, -2.80822e-08
2, 4, 1.54, -7714.33, 1.98117e-10, 1.70488e-10, 1.98117e-10, -2.72711e-08, -6.53037e-11, 1.70488e-10, -6.53037e-11, -2.7946e-08
2, 5, 1.55, -7336.61, 2.06377e-10, 1.75891e-10, 2.06377e-10, -2.70965e-08, -6.99962e-11, 1.75891e-10, -6.99962e-11, -2.78026e-08
2, 6, 1.56, -6960.31, 2.14762e-10, 1.80845e-10, 2.14762e-10, -2.69216e-08, -7.53892e-11, 1.80845e-10, -7.53892e-11, -2.76604e-08
2, 7, 1.57, -6585.36, 1.42976e-11, 6.03358e-12, 1.42976e-11, -2.68998e-08, 3.24703e-12, 6.03358e-12, 3.24703e-12, -2.6876e-08
2, 8, 1.58, -6211.69, 1.48704e-11, 5.72738e-12, 1.48704e-11, -2.67267e-08, 3.6969e-12, 5.72738e-12, 3.6969e-12, -2.6699e-08
2, 9, 1.59, -5839.24, 1.53981e-11, 5.82314e-12, 1.53981e-11, -2.65495e-08, 3.59461e-12, 5.82314e-12, 3.59461e-12, -2.65211e-08
2, 10, 1.6, -5467.94, 1.59167e-11, 6.02343e-12, 1.59167e-11, -2.63712e-08, 3.635e-12, 6.02343e-12, 3.635e-12, -2.63401e-08
2, 11, 1.61, -5097.74, 1.67234e-11, 6.03578e-12, 1.67234e-11, -2.61914e-08, 3.74818e-12, 6.03578e-12, 3.74818e-12, -2.61608e-08
2, 12, 1.62, -4728.56, 1.71565e-11, 5.97327e-12, 1.71565e-11, -2.60077e-08, 3.64764e-12, 5.97327e-12, 3.64764e-12, -2.59769e-08
2, 13, 1.63, -4360.37, 1.80481e-11, 5.83745e-12, 1.80481e-11, -2.58309e-08, 3.15656e-12, 5.83745e-12, 3.15656e-12, -2.57975e-08
2, 14, 1.64, -3993.09, 1.85808e-11, 5.29419e-12, 1.85808e-11, -2.56489e-08, 2.88468e-12, 5.29419e-12, 2.88468e-12, -2.56124e-08
2, 15, 1.65, -3626.69, 1.9252e-11, 5.46805e-12, 1.9252e-11, -2.54664e-08, 2.60781e-12, 5.46805e-12, 2.60781e-12, -2.54313e-08
2, 16, 1.66, -3261.1, 1.95864e-11, 4.91466e-12, 1.95864e-11, -2.5285e-08, 2.53349e-12, 4.91466e-12, 2.53349e-12, -2.52504e-08
2, 17, 1.67, -2896.28, 2.04842e-11, 4.5287e-12, 2.04842e-11, -2.51055e-08, 2.1365e-12, 4.5287e-12, 2.1365e-12, -2.50678e-08
2, 18, 1.68, -2532.18, 2.14229e-11, 4.67879e-12, 2.14229e-11, -2.49264e-08, 1.91497e-12, 4.67879e-12, 1.91497e-12, -2.48881e-08
2, 19, 1.69, -2168.76, 2.2111e-11, 4.12849e-12, 2.2111e-11, -2.47424e-08, 1.18402e-12, 4.12849e-12, 1.18402e-12, -2.47016e-08
2, 20, 1.7, -1805.96, 2.26089e-11, 3.38512e-12, 2.26089e-11, -2.45645e-08, 4.38895e-13, 3.38512e-12, 4.38895e-13, -2.45235e-08
2, 21, 1.71, -1443.76, 2.38536e-11, 3.43365e-12, 2.38536e-11, -2.43879e-08, -6.49705e-14, 3.43365e-12, -6.49705e-14, -2.43449e-08
2, 22, 1.72, -1082.1, 2.45365e-11, 2.48677e-12, 2.45365e-11, -2.42121e-08, -9.62871e-13, 2.48677e-12, -9.62871e-13, -2.41694e-08
2, 23, 1.73, -720.943, 2.50991e-11, 1.87636e-12, 2.50991e-11, -2.40295e-08, -1.25565e-12, 1.87636e-12, -1.25565e-12, -2.39858e-08
2, 24, 1.74, -360.256, 2.59359e-11, 8.79062e-13, 2.59359e-11, -2.38561e-08, -2.1259e-12, 8.79062e-13, -2.1259e-12, -2.38124e-08
2, 25, 1.75, -1.56037e-08, 2.67573e-11, 2.422e-13, 2.67573e-11, -2.368e-08, -2.86539e-12, 2.422e-13, -2.86539e-12, -2.36355e-08
2, 26, 1.76, 359.862, 2.76465e-11, -2.75881e-13, 2.76465e-11, -2.35095e-08, -3.7946e-12, -2.75881e-13, -3.7946e-12, -2.34641e-08
2, 27, 1.77, 719.365, 2.83248e-11, -1.55532e-12, 2.83248e-11, -2.33328e-08, -5.09982e-12, -1.55532e-12, -5.09982e-12, -2.3287e-08
2, 28, 1.78, 1078.54, 2.91572e-11, -2.72764e-12, 2.91572e-11, -2.31645e-08, -5.97555e-12, -2.72764e-12, -5.97555e-12, -2.31177e-08
2, 29, 1.79, 1437.43, 2.98311e-11, -3.63261e-12, 2.98311e-11, -2.29917e-08, -6.88716e-12, -3.63261e-12, -6.88716e-12, -2.29441e-08
2, 30, 1.8, 1796.05, 3.06358e-11, -4.88374e-12, 3.06358e-11, -2.28228e-08, -8.04098e-12, -4.88374e-12, -8.04098e-12, -2.27749e-08
2, 31, 1.81, 2154.45, 3.11013e-11, -6.13314e-12, 3.11013e-11, -2.26539e-08, -9.61659e-12, -6.13314e-12, -9.61659e-12, -2.26064e-08
2, 32, 1.82, 2512.64, 3.22665e-11, -7.58251e-12, 3.22665e-11, -2.2487e-08, -1.07952e-11, -7.58251e-12, -1.07952e-11, -2.24387e-08
2, 33, 1.83, 2870.66, 3.27321e-11, -9.2738e-12, 3.27321e-11, -2.23219e-08, -1.25617e-11, -9.2738e-12, -1.25617e-11, -2.22738e-08
2, 34, 1.84, 3228.53, 3.39019e-11, -1.07167e-11, 3.39019e-11, -2.21599e-08, -1.38752e-11, -1.07167e-11, -1.38752e-11, -2.21104e-08
2, 35, 1.85, 3586.29, 3.42428e-11, -1.2576e-11, 3.42428e-11, -2.19954e-08, -1.52098e-11, -1.2576e-11, -1.52098e-11, -2.19461e-08
2, 36, 1.86, 3943.95, 3.54278e-11, -1.43862e-11, 3.54278e-11, -2.18371e-08, -1.70746e-11, -1.43862e-11, -1.70746e-11, -2.17886e-08
2, 37, 1.87, 4301.55, 3.55655e-11, -1.67493e-11, 3.55655e-11, -2.16775e-08, -1.88325e-11, -1.67493e-11, -1.88325e-11, -2.16281e-08
2, 38, 1.88, 4659.11, 3.98858e-11, -2.40494e-11, 3.98858e-11, -2.1512e-08, -1.76986e-11, -2.40494e-11, -1.76986e-11, -2.14575e-08
2, 39, 1.89, 5016.64, 4.07659e-11, -2.67692e-11, 4.07659e-11, -2.13558e-08, -1.92581e-11, -2.67692e-11, -1.92581e-11, -2.13004e-08
2, 40, 1.9, 5374.18, 4.19227e-11, -2.96396e-11, 4.19227e-11, -2.11992e-08, -2.07299e-11, -2.96396e-11, -2.07299e-11, -2.11441e-08
2, 41, 1.91, 5731.75, 4.32271e-11, -3.24738e-11, 4.32271e-11, -2.10477e-08, -2.24222e-11, -3.24738e-11, -2.24222e-11, -2.09928e-08
2, 42, 1.92, 6089.36, 3.75754e-11, -2.26738e-11, 3.75754e-11, -2.09074e-08, -2.61031e-11, -2.26738e-11, -2.61031e-11, -2.08533e-08
2, 43, 1.93, 6447.04, 2.7949e-11, -6.36343e-12, 2.7949e-11, -2.07744e-08, -2.95277e-11, -6.36343e-12, -2.95277e-11, -2.07223e-08
2, 44, 1.94, 6804.8, 2.79862e-11, -7.89624e-12, 2.79862e-11, -2.06281e-08, -3.18018e-11, -7.89624e-12, -3.18018e-11, -2.05769e-08
2, 45, 1.95, 7162.68, 2.78496e-11, -9.48117e-12, 2.78496e-11, -2.04829e-08, -3.41668e-11, -9.48117e-12, -3.41668e-11, -2.04315e-08
2, 46, 1.96, 7520.68, 2.7413e-11, -1.17247e-11, 2.7413e-11, -2.03373e-08, -3.62751e-11, -1.17247e-11, -3.62751e-11, -2.02864e-08
2, 47, 1.97, 7878.82, 2.69499e-11, -1.35961e-11, 2.69499e-11, -2.01972e-08, -3.84474e-11, -1.35961e-11, -3.84474e-11, -2.0146e-08
2, 48, 1.98, 8237.12, 2.72632e-11, -1.50406e-11, 2.72632e-11, -2.00566e-08, -4.08099e-11, -1.50406e-11, -4.08099e-11, -2.00057e-08
2, 49, 1.99, 8595.61, 2.68653e-11, -1.73484e-11, 2.68653e-11, -1.99168e-08, -4.33314e-11, -1.73484e-11, -4.33314e-11, -1.98667e-08
2, 50, 2, 8954.29, 2.62471e-11, -1.99243e-11, 2.62471e-11, -1.97822e-08, -4.56121e-11, -1.99243e-11, -4.56121e-11, -1.97327e-08
3, 1, 2.01, 8595.61, -2.25311e-11, 1.89996e-11, -2.25311e-11, -1.91039e-08, 4.79179e-11, 1.89996e-11, 4.79179e-11, -1.91605e-08
3, 2, 2.02, 8237.12, -1.60459e-11, 3.3579e-12, -1.60459e-11, -1.92496e-08, 4.6062e-11, 3.3579e-12, 4.6062e-11, -1.93065e-08
3, 3, 2.03, 7878.82, -1.67567e-11, 1.98659e-12, -1.67567e-11, -1.94028e-08, 4.37632e-11, 1.98659e-12, 4.37632e-11, -1.94608e-08
3, 4, 2.04, 7520.68, -1.40981e-11, -5.87721e-12, -1.40981e-11, -1.95555e-08, 4.14735e-11, -5.87721e-12, 4.14735e-11, -1.96129e-08
3, 5, 2.05, 7162.68, -1.13589e-11, -1.29897e-11, -1.13589e-11, -1.97092e-08, 4.0112e-11, -1.29897e-11, 4.0112e-11, -1.97676e-08
3, 6, 2.06, 6804.8, -8.86903e-12, -1.98556e-11, -8.86903e-12, -1.98628e-08, 3.80555e-11, -1.98556e-11, 3.80555e-11, -1.99219e-08
3, 7, 2.07, 6447.04, -1.04646e-11, -2.07235e-11, -1.04646e-11, -2.00199e-08, 3.58747e-11, -2.07235e-11, 3.58747e-11, -2.00787e-08
3, 8, 2.08, 6089.36, -1.14728e-11, -2.10268e-11, -1.14728e-11, -2.01821e-08, 3.36994e-11, -2.10268e-11, 3.36994e-11, -2.02402e-08
3, 9, 2.09, 5731.75, -1.26508e-11, -2.13835e-11, -1.26508e-11, -2.03436e-08, 3.17014e-11, -2.13835e-11, 3.17014e-11, -2.04008e-08
3, 10, 2.1, 5374.18, -1.302e-11, -2.13001e-11, -1.302e-11, -2.0505e-08, 2.94575e-11, -2.13001e-11, 2.94575e-11, -2.05612e-08
3, 11, 2.11, 5016.64, -1.41379e-11, -2.21471e-11, -1.41379e-11, -2.06686e-08, 2.76544e-11, -2.21471e-11, 2.76544e-11, -2.07244e-08
3, 12, 2.12, 4659.11, -1.51551e-11, -2.19922e-11, -1.51551e-11, -2.08343e-08, 2.53706e-11, -2.19922e-11, 2.53706e-11, -2.08894e-08
3, 13, 2.13, 4301.55, -1.2253e-11, -2.71046e-11, -1.2253e-11, -2.09941e-08, 2.64171e-11, -2.71046e-11, 2.64171e-11, -2.10415e-08
3, 14, 2.14, 3943.95, -1.28946e-11, -2.64847e-11, -1.28946e-11, -2.11631e-08, 2.41557e-11, -2.64847e-11, 2.41557e-11, -2.12097e-08
3, 15, 2.15, 3586.29, -1.39409e-11, -2.63105e-11, -1.39409e-11, -2.13307e-08, 2.22822e-11, -2.63105e-11, 2.22822e-11, -2.13765e-08
3, 16, 2.16, 3228.53, -1.40933e-11, -2.58581e-11, -1.40933e-11, -2.15028e-08, 2.04969e-11, -2.58581e-11, 2.04969e-11, -2.15479e-08
3, 17, 2.17, 2870.66, -1.45667e-11, -2.54932e-11, -1.45667e-11, -2.1672e-08, 1.85256e-11, -2.54932e-11, 1.85256e-11, -2.17152e-08
3, 18, 2.18, 2512.64, -1.51901e-11, -2.50692e-11, -1.51901e-11, -2.18455e-08, 1.71967e-11, -2.50692e-11, 1.71967e-11, -2.18882e-08
3, 19, 2.19, 2154.45, -1.57134e-11, -2.46224e-11, -1.57134e-11, -2.20181e-08, 1.53674e-11, -2.46224e-11, 1.53674e-11, -2.20593e-08
3, 20, 2.2, 1796.05, -1.54743e-11, -2.37624e-11, -1.54743e-11, -2.21918e-08, 1.40252e-11, -2.37624e-11, 1.40252e-11, -2.22319e-08
3, 21, 2.21, 1437.43, -1.59517e-11, -2.35672e-11, -1.59517e-11, -2.23641e-08, 1.24831e-11, -2.35672e-11, 1.24831e-11, -2.24032e-08
3, 22, 2.22, 1078.54, -1.61197e-11, -2.31795e-11, -1.61197e-11, -2.25428e-08, 1.12733e-11, -2.31795e-11, 1.12733e-11, -2.25806e-08
3, 23, 2.23, 719.365, -1.59567e-11, -2.24907e-11, -1.59567e-11, -2.27167e-08, 9.95672e-12, -2.24907e-11, 9.95672e-12, -2.2754e-08
3, 24, 2.24, 359.862, -1.57388e-11, -2.21374e-11, -1.57388e-11, -2.28976e-08, 8.45114e-12, -2.21374e-11, 8.45114e-12, -2.29326e-08
3, 25, 2.25, -1.5338e-08, -1.57707e-11, -2.16743e-11, -1.57707e-11, -2.30718e-08, 7.69996e-12, -2.16743e-11, 7.69996e-12, -2.31064e-08
3, 26, 2.26, -360.256, -1.54071e-11, -2.12091e-11, -1.54071e-11, -2.3255e-08, 6.58512e-12, -2.12091e-11, 6.58512e-12, -2.32895e-08
3, 27, 2.27, -720.943, -1.60062e-11, -2.06144e-11, -1.60062e-11, -2.34274e-08, 5.93435e-12, -2.06144e-11, 5.93435e-12, -2.34601e-08
3, 28, 2.28, -1082.1, -1.56265e-11, -1.99649e-11, -1.56265e-11, -2.3608e-08, 4.77307e-12, -1.99649e-11, 4.77307e-12, -2.36371e-08
3, 29, 2.29, -1443.76, -1.48966e-11, -1.92174e-11, -1.48966e-11, -2.3789e-08, 3.59092e-12, -1.92174e-11, 3.59092e-12, -2.38183e-08
3, 30, 2.3, -1805.96, -1.5051e-11, -1.89298e-11, -1.5051e-11, -2.39696e-08, 3.27546e-12, -1.89298e-11, 3.27546e-12, -2.3998e-08
3, 31, 2.31, -2168.76, -1.46489e-11, -1.85411e-11, -1.46489e-11, -2.41485e-08, 2.13224e-12, -1.85411e-11, 2.13224e-12, -2.41772e-08
3, 32, 2.32, -2532.18, -1.43134e-11, -1.75879e-11, -1.43134e-11, -2.43316e-08, 1.52724e-12, -1.75879e-11, 1.52724e-12, -2.43592e-08
3, 33, 2.33, -2896.28, -1.40451e-11, -1.70882e-11, -1.40451e-11, -2.45132e-08, 1.19083e-12, -1.70882e-11, 1.19083e-12, -2.45382e-08
3, 34, 2.34, -3261.1, -1.33573e-11, -1.67242e-11, -1.33573e-11, -2.46923e-08, 7.93263e-13, -1.67242e-11, 7.93263e-13, -2.47175e-08
3, 35, 2.35, -3626.69, -1.31434e-11, -1.62515e-11, -1.31434e-11, -2.48748e-08, -1.5913e-13, -1.62515e-11, -1.5913e-13, -2.48981e-08
3, 36, 2.36, -3993.09, -1.31635e-11, -1.56567e-11, -1.31635e-11, -2.50542e-08, -2.49451e-13, -1.56567e-11, -2.49451e-13, -2.5078e-08
3, 37, 2.37, -4360.37, -1.28428e-11, -1.49951e-11, -1.28428e-11, -2.52359e-08, -1.08105e-12, -1.49951e-11, -1.08105e-12, -2.52581e-08
3, 38, 2.38, -4728.56, -1.23137e-11, -1.46875e-11, -1.23137e-11, -2.54189e-08, -1.09579e-12, -1.46875e-11, -1.09579e-12, -2.54407e-08
3, 39, 2.39, -5097.74, -1.22739e-11, -1.4079e-11, -1.22739e-11, -2.5597e-08, -1.32333e-12, -1.4079e-11, -1.32333e-12, -2.56173e-08
3, 40, 2.4, -5467.94, -1.18852e-11, -1.37451e-11, -1.18852e-11, -2.57758e-08, -1.89789e-12, -1.37451e-11, -1.89789e-12, -2.57961e-08
3, 41, 2.41, -5839.24, -1.18324e-11, -1.31571e-11, -1.18324e-11, -2.59553e-08, -1.43007e-12, -1.31571e-11, -1.43007e-12, -2.59731e-08
3, 42, 2.42, -6211.69, -1.11961e-11, -1.29225e-11, -1.11961e-11, -2.61329e-08, -2.26694e-12, -1.29225e-11, -2.26694e-12, -2.61512e-08
3, 43, 2.43, -6585.36, -1.12712e-11, -1.25712e-11, -1.12712e-11, -2.63061e-08, -2.09543e-12, -1.25712e-11, -2.09543e-12, -2.63259e-08
3, 44, 2.44, -6960.31, -1.04981e-11, -1.18918e-11, -1.04981e-11, -2.64822e-08, -2.12927e-12, -1.18918e-11, -2.12927e-12, -2.64981e-08
3, 45, 2.45, -7336.61, -1.04477e-11, -1.1688e-11, -1.04477e-11, -2.66531e-08, -2.26407e-12, -1.1688e-11, -2.26407e-12, -2.66698e-08
3, 46, 2.46, -7714.33, -2.07278e-10, -1.82712e-10, -2.07278e-10, -2.69794e-08, 7.75565e-11, -1.82712e-10, 7.75565e-11, -2.62245e-08
3, 47, 2.47, -8093.54, -1.99084e-10, -1.77415e-10, -1.99084e-10, -2.71465e-08, 7.22976e-11, -1.77415e-10, 7.22976e-11, -2.64239e-08
3, 48, 2.48, -8474.33, -1.91127e-10, -1.71618e-10, -1.91127e-10, -2.73056e-08, 6.7084e-11, -1.71618e-10, 6.7084e-11, -2.66176e-08
3, 49, 2.49, -8856.77, -1.82922e-10, -1.66127e-10, -1.82922e-10, -2.74659e-08, 6.29519e-11, -1.66127e-10, 6.29519e-11, -2.68088e-08
3, 50, 2.5, -9240.93, -1.74959e-10, -1.608e-10, -1.74959e-10, -2.76168e-08, 5.89345e-11, -1.608e-10, 5.89345e-11, -2.69914e-08
4, 1, 2.505, -8856.77, 1.72877e-10, 1.54499e-10, 1.72877e-10, -2.77674e-08, -5.39961e-11, 1.54499e-10, -5.39961e-11, -2.83513e-08
4, 2, 2.51, -8474.33, 1.81547e-10, 1.59474e-10, 1.81547e-10, -2.76051e-08, -5.69362e-11, 1.59474e-10, -5.69362e-11, -2.82179e-08
4, 3, 2.515, -8093.54, 1.89556e-10, 1.64923e-10, 1.89556e-10, -2.74389e-08, -6.10366e-11, 1.64923e-10, -6.10366e-11, -2.80818e-08
4, 4, 2.52, -7714.33, 1.97793e-10, 1.70335e-10, 1.97793e-10, -2.72688e-08, -6.5256e-11, 1.70335e-10, -6.5256e-11, -2.79434e-08
4, 5, 2.525, -7336.61, 2.06254e-10, 1.758e-10, 2.06254e-10, -2.70969e-08, -7.01518e-11, 1.758e-10, -7.01518e-11, -2.78024e-08
4, 6, 2.53, -6960.31, 2.14824e-10, 1.80513e-10, 2.14824e-10, -2.69212e-08, -7.54154e-11, 1.80513e-10, -7.54154e-11, -2.76612e-08
4, 7, 2.535, -6585.36, 1.41816e-11, 6.283e-12, 1.41816e-11, -2.69011e-08, 3.4963e-12, 6.283e-12, 3.4963e-12, -2.6876e-08
4, 8, 2.54, -6211.69, 1.48059e-11, 5.8883e-12, 1.48059e-11, -2.67233e-08, 3.73023e-12, 5.8883e-12, 3.73023e-12, -2.66972e-08
4, 9, 2.545, -5839.24, 1.52173e-11, 6.03814e-12, 1.52173e-11, -2.65467e-08, 3.78119e-12, 6.03814e-12, 3.78119e-12, -2.65207e-08
4, 10, 2.55, -5467.94, 1.58496e-11, 6.14772e-12, 1.58496e-11, -2.63694e-08, 3.278e-12, 6.14772e-12, 3.278e-12, -2.63395e-08
4, 11, 2.555, -5097.74, 1.68804e-11, 6.10281e-12, 1.68804e-11, -2.61904e-08, 3.62557e-12, 6.10281e-12, 3.62557e-12, -2.61557e-08
4, 12, 2.56, -4728.56, 1.72905e-11, 5.71902e-12, 1.72905e-11, -2.60119e-08, 3.47177e-12, 5.71902e-12, 3.47177e-12, -2.59797e-08
4, 13, 2.565, -4360.37, 1.81254e-11, 5.80692e-12, 1.81254e-11, -2.58295e-08, 3.39584e-12, 5.80692e-12, 3.39584e-12, -2.57968e-08
4, 14, 2.57, -3993.09, 1.8455e-11, 5.37104e-12, 1.8455e-11, -2.56499e-08, 3.0324e-12, 5.37104e-12, 3.0324e-12, -2.56154e-08
4, 15, 2.575, -3626.69, 1.9243e-11, 5.50014e-12, 1.9243e-11, -2.54688e-08, 2.72935e-12, 5.50014e-12, 2.72935e-12, -2.54328e-08
4, 16, 2.58, -3261.1, 1.96865e-11, 5.16945e-12, 1.96865e-11, -2.52886e-08, 2.27473e-12, 5.16945e-12, 2.27473e-12, -2.52517e-08
4, 17, 2.585, -2896.28, 2.11849e-11, 4.84427e-12, 2.11849e-11, -2.51095e-08, 2.26758e-12, 4.84427e-12, 2.26758e-12, -2.50692e-08
4, 18, 2.59, -2532.18, 2.12415e-11, 4.52434e-12, 2.12415e-11, -2.49243e-08, 2.00506e-12, 4.52434e-12, 2.00506e-12, -2.4885e-08
4, 19, 2.595, -2168.76, 2.19151e-11, 3.917e-12, 2.19151e-11, -2.47447e-08, 9.45693e-13, 3.917e-12, 9.45693e-13, -2.47048e-08
4, 20, 2.6, -1805.96, 2.29441e-11, 3.39869e-12, 2.29441e-11, -2.45676e-08, 5.91135e-13, 3.39869e-12, 5.91135e-13, -2.45289e-08
4, 21, 2.605, -1443.76, 2.35797e-11, 3.33259e-12, 2.35797e-11, -2.43916e-08, 3.23977e-14, 3.33259e-12, 3.23977e-14, -2.43469e-08
4, 22, 2.61, -1082.1, 2.45206e-11, 2.38575e-12, 2.45206e-11, -2.42079e-08, -6.64721e-13, 2.38575e-12, -6.64721e-13, -2.41644e-08
4, 23, 2.615, -720.943, 2.47162e-11, 1.69984e-12, 2.47162e-11, -2.40313e-08, -1.41452e-12, 1.69984e-12, -1.41452e-12, -2.39875e-08
4, 24, 2.62, -360.256, 2.58097e-11, 6.86327e-13, 2.58097e-11, -2.38569e-08, -2.34472e-12, 6.86327e-13, -2.34472e-12, -2.38129e-08
4, 25, 2.625, -1.59026e-08, 2.65652e-11, 3.09015e-13, 2.65652e-11, -2.36805e-08, -3.03546e-12, 3.09015e-13, -3.03546e-12, -2.36354e-08
4, 26, 2.63, 359.862, 2.76336e-11, -7.22766e-13, 2.76336e-11, -2.35083e-08, -3.74574e-12, -7.22766e-13, -3.74574e-12, -2.3462e-08
4, 27, 2.635, 719.365, 2.82977e-11, -1.53052e-12, 2.82977e-11, -2.33376e-08, -4.62239e-12, -1.53052e-12, -4.62239e-12, -2.3291e-08
4, 28, 2.64, 1078.54, 2.91077e-11, -2.49218e-12, 2.91077e-11, -2.31623e-08, -5.98395e-12, -2.49218e-12, -5.98395e-12, -2.3115e-08
4, 29, 2.645, 1437.43, 2.98956e-11, -3.82838e-12, 2.98956e-11, -2.29909e-08, -7.13355e-12, -3.82838e-12, -7.13355e-12, -2.29441e-08
4, 30, 2.65, 1796.05, 3.06611e-11, -4.83526e-12, 3.06611e-11, -2.28225e-08, -8.43848e-12, -4.83526e-12, -8.43848e-12, -2.27745e-08
4, 31, 2.655, 2154.45, 3.14919e-11, -6.41977e-12, 3.14919e-11, -2.26537e-08, -9.4234e-12, -6.41977e-12, -9.4234e-12, -2.26061e-08
4, 32, 2.66, 2512.64, 3.21407e-11, -7.79981e-12, 3.21407e-11, -2.24857e-08, -1.10152e-11, -7.79981e-12, -1.10152e-11, -2.24378e-08
4, 33, 2.665, 2870.66, 3.29995e-11, -9.29674e-12, 3.29995e-11, -2.23239e-08, -1.2395e-11, -9.29674e-12, -1.2395e-11, -2.22742e-08
4, 34, 2.67, 3228.53, 3.3778e-11, -1.07687e-11, 3.3778e-11, -2.2158e-08, -1.3861e-11, -1.07687e-11, -1.3861e-11, -2.21098e-08
4, 35, 2.675, 3586.29, 3.43682e-11, -1.28904e-11, 3.43682e-11, -2.19961e-08, -1.5504e-11, -1.28904e-11, -1.5504e-11, -2.1948e-08
4, 36, 2.68, 3943.95, 3.4633e-11, -1.4655e-11, 3.4633e-11, -2.18364e-08, -1.70922e-11, -1.4655e-11, -1.70922e-11, -2.17871e-08
4, 37, 2.685, 4301.55, 3.54871e-11, -1.68353e-11, 3.54871e-11, -2.16771e-08, -1.85587e-11, -1.68353e-11, -1.85587e-11, -2.16284e-08
4, 38, 2.69, 4659.11, 4.0199e-11, -2.37114e-11, 4.0199e-11, -2.15133e-08, -1.77947e-11, -2.37114e-11, -1.77947e-11, -2.1458e-08
4, 39, 2.695, 5016.64, 4.08742e-11, -2.67915e-11, 4.08742e-11, -2.13548e-08, -1.92533e-11, -2.67915e-11, -1.92533e-11, -2.12998e-08
4, 40, 2.7, 5374.18, 4.19357e-11, -2.9588e-11, 4.19357e-11, -2.11996e-08, -2.09563e-11, -2.9588e-11, -2.09563e-11, -2.11452e-08
4, 41, 2.705, 5731.75, 4.26871e-11, -3.26768e-11, 4.26871e-11, -2.10467e-08, -2.27015e-11, -3.26768e-11, -2.27015e-11, -2.09913e-08
4, 42, 2.71, 6089.36, 3.75292e-11, -2.31175e-11, 3.75292e-11, -2.09086e-08, -2.59632e-11, -2.31175e-11, -2.59632e-11, -2.08541e-08
4, 43, 2.715, 6447.04, 2.79208e-11, -6.43709e-12, 2.79208e-11, -2.07746e-08, -2.97332e-11, -6.43709e-12, -2.97332e-11, -2.07221e-08
4, 44, 2.72, 6804.8, 2.79869e-11, -7.87023e-12, 2.79869e-11, -2.06265e-08, -3.18539e-11, -7.87023e-12, -3.18539e-11, -2.05746e-08
4, 45, 2.725, 7162.68, 2.77672e-11, -9.76645e-12, 2.77672e-11, -2.04823e-08, -3.38472e-11, -9.76645e-12, -3.38472e-11, -2.04318e-08
4, 46, 2.73, 7520.68, 2.77078e-11, -1.12922e-11, 2.77078e-11, -2.03409e-08, -3.63064e-11, -1.12922e-11, -3.63064e-11, -2.02891e-08
4, 47, 2.735, 7878.82, 2.69133e-11, -1.35721e-11, 2.69133e-11, -2.01963e-08, -3.86224e-11, -1.35721e-11, -3.86224e-11, -2.01452e-08
4, 48, 2.74, 8237.12, 2.70115e-11, -1.5402e-11, 2.70115e-11, -2.0058e-08, -4.08936e-11, -1.5402e-11, -4.08936e-11, -2.00072e-08
4, 49, 2.745, 8595.61, 2.66245e-11, -1.74901e-11, 2.66245e-11, -1.99185e-08, -4.30411e-11, -1.74901e-11, -4.30411e-11, -1.98685e-08
4, 50, 2.75, 8954.29, 2.62315e-11, -1.9764e-11, 2.62315e-11, -1.97818e-08, -4.5509e-11, -1.9764e-11, -4.5509e-11, -1.97321e-08
4, 51, 2.75, 8954.29, -8.65084e-14, -2.15398e-14, -8.65084e-14, 9.80549e-13, 5.11605e-14, -2.15398e-14, 5.11605e-14, 1.30029e-12
5, 1, 2.755, 8595.61, -2.24071e-11, 1.87927e-11, -2.24071e-11, -1.91023e-08, 4.81001e-11, 1.87927e-11, 4.81001e-11, -1.91583e-08
5, 2, 2.76, 8237.12, -1.59366e-11, 3.91346e-12, -1.59366e-11, -1.92498e-08, 4.60597e-11, 3.91346e-12, 4.60597e-11, -1.9307e-08
5, 3, 2.765, 7878.82, -1.67705e-11, 2.27275e-12, -1.67705e-11, -1.94015e-08, 4.3741e-11, 2.27275e-12, 4.3741e-11, -1.94591e-08
5, 4, 2.77, 7520.68, -1.40588e-11, -5.88023e-12, -1.40588e-11, -1.95566e-08, 4.1472e-11, -5.88023e-12, 4.1472e-11, -1.96145e-08
5, 5, 2.775, 7162.68, -1.14174e-11, -1.30124e-11, -1.14174e-11, -1.97077e-08, 3.99218e-11, -1.30124e-11, 3.99218e-11, -1.97663e-08
5, 6, 2.78, 6804.8, -9.13651e-12, -2.01798e-11, -9.13651e-12, -1.98622e-08, 3.82748e-11, -2.01798e-11, 3.82748e-11, -1.9921e-08
5, 7, 2.785, 6447.04, -1.0517e-11, -2.06828e-11, -1.0517e-11, -2.00205e-08, 3.60292e-11, -2.06828e-11, 3.60292e-11, -2.00782e-08
5, 8, 2.79, 6089.36, -1.12025e-11, -2.10788e-11, -1.12025e-11, -2.01806e-08, 3.36528e-11, -2.10788e-11, 3.36528e-11, -2.0239e-08
5, 9, 2.795, 5731.75, -1.21955e-11, -2.13135e-11, -1.21955e-11, -2.03436e-08, 3.17517e-11, -2.13135e-11, 3.17517e-11, -2.04009e-08
5, 10, 2.8, 5374.18, -1.31545e-11, -2.17329e-11, -1.31545e-11, -2.05063e-08, 2.9651e-11, -2.17329e-11, 2.9651e-11, -2.05617e-08
5, 11, 2.805, 5016.64, -1.40786e-11, -2.20063e-11, -1.40786e-11, -2.06702e-08, 2.76094e-11, -2.20063e-11, 2.76094e-11, -2.07255e-08
5, 12, 2.81, 4659.11, -1.46686e-11, -2.18117e-11, -1.46686e-11, -2.08368e-08, 2.56946e-11, -2.18117e-11, 2.56946e-11, -2.08917e-08
5, 13, 2.815, 4301.55, -1.2151e-11, -2.69969e-11, -1.2151e-11, -2.09933e-08, 2.65388e-11, -2.69969e-11, 2.65388e-11, -2.10394e-08
5, 14, 2.82, 3943.95, -1.28304e-11, -2.65652e-11, -1.28304e-11, -2.11627e-08, 2.43242e-11, -2.65652e-11, 2.43242e-11, -2.12095e-08
5, 15, 2.825, 3586.29, -1.34081e-11, -2.60425e-11, -1.34081e-11, -2.13321e-08, 2.22836e-11, -2.60425e-11, 2.22836e-11, -2.13782e-08
5, 16, 2.83, 3228.53, -1.42266e-11, -2.59451e-11, -1.42266e-11, -2.15032e-08, 2.03007e-11, -2.59451e-11, 2.03007e-11, -2.1547e-08
5, 17, 2.835, 2870.66, -1.49507e-11, -2.5503e-11, -1.49507e-11, -2.16735e-08, 1.88109e-11, -2.5503e-11, 1.88109e-11, -2.1716e-08
5, 18, 2.84, 2512.64, -1.52933e-11, -2.50714e-11, -1.52933e-11, -2.1844e-08, 1.70155e-11, -2.50714e-11, 1.70155e-11, -2.18865e-08
5, 19, 2.845, 2154.45, -1.52832e-11, -2.44098e-11, -1.52832e-11, -2.20193e-08, 1.55584e-11, -2.44098e-11, 1.55584e-11, -2.20601e-08
5, 20, 2.85, 1796.05, -1.5754e-11, -2.41673e-11, -1.5754e-11, -2.21929e-08, 1.41134e-11, -2.41673e-11, 1.41134e-11, -2.22316e-08
5, 21, 2.855, 1437.43, -1.60357e-11, -2.37283e-11, -1.60357e-11, -2.2366e-08, 1.23978e-11, -2.37283e-11, 1.23978e-11, -2.2405e-08
5, 22, 2.86, 1078.54, -1.56753e-11, -2.28238e-11, -1.56753e-11, -2.2542e-08, 1.1207e-11, -2.28238e-11, 1.1207e-11, -2.25796e-08
5, 23, 2.865, 719.365, -1.55309e-11, -2.24956e-11, -1.55309e-11, -2.27194e-08, 9.83543e-12, -2.24956e-11, 9.83543e-12, -2.27566e-08
5, 24, 2.87, 359.862, -1.59111e-11, -2.22362e-11, -1.59111e-11, -2.28968e-08, 8.28772e-12, -2.22362e-11, 8.28772e-12, -2.29326e-08
5, 25, 2.875, -1.51737e-08, -1.57517e-11, -2.14992e-11, -1.57517e-11, -2.30732e-08, 7.50025e-12, -2.14992e-11, 7.50025e-12, -2.31073e-08
5, 26, 2.88, -360.256, -1.56721e-11, -2.11661e-11, -1.56721e-11, -2.32523e-08, 6.60534e-12, -2.11661e-11, 6.60534e-12, -2.32861e-08
5, 27, 2.885, -720.943, -1.56631e-11, -2.04143e-11, -1.56631e-11, -2.34279e-08, 5.57075e-12, -2.04143e-11, 5.57075e-12, -2.34608e-08
5, 28, 2.89, -1082.1, -1.55285e-11, -1.99781e-11, -1.55285e-11, -2.36082e-08, 4.85663e-12, -1.99781e-11, 4.85663e-12, -2.36386e-08
5, 29, 2.895, -1443.76, -1.51823e-11, -1.93544e-11, -1.51823e-11, -2.37903e-08, 4.16783e-12, -1.93544e-11, 4.16783e-12, -2.38198e-08
5, 30, 2.9, -1805.96, -1.50658e-11, -1.86504e-11, -1.50658e-11, -2.39672e-08, 2.99239e-12, -1.86504e-11, 2.99239e-12, -2.3995e-08
5, 31, 2.905, -2168.76, -1.4429e-11, -1.80627e-11, -1.4429e-11, -2.41517e-08, 2.25579e-12, -1.80627e-11, 2.25579e-12, -2.41803e-08
5, 32, 2.91, -2532.18, -1.43182e-11, -1.76024e-11, -1.43182e-11, -2.43301e-08, 1.40482e-12, -1.76024e-11, 1.40482e-12, -2.43553e-08
5, 33, 2.915, -2896.28, -1.43415e-11, -1.73659e-11, -1.43415e-11, -2.45132e-08, 1.09365e-12, -1.73659e-11, 1.09365e-12, -2.45389e-08
5, 34, 2.92, -3261.1, -1.385e-11, -1.66285e-11, -1.385e-11, -2.46923e-08, 6.00236e-13, -1.66285e-11, 6.00236e-13, -2.47176e-08
5, 35, 2.925, -3626.69, -1.3335e-11, -1.61446e-11, -1.3335e-11, -2.48747e-08, -2.43439e-13, -1.61446e-11, -2.43439e-13, -2.48985e-08
5, 36, 2.93, -3993.09, -1.31832e-11, -1.55326e-11, -1.31832e-11, -2.5058e-08, -2.93742e-13, -1.55326e-11, -2.93742e-13, -2.50801e-08
5, 37, 2.935, -4360.37, -1.3309e-11, -1.52049e-11, -1.3309e-11, -2.52375e-08, -8.0624e-13, -1.52049e-11, -8.0624e-13, -2.52591e-08
5, 38, 2.94, -4728.56, -1.25568e-11, -1.47085e-11, -1.25568e-11, -2.54147e-08, -7.6319e-13, -1.47085e-11, -7.6319e-13, -2.54371e-08
5, 39, 2.945, -5097.74, -1.20227e-11, -1.39401e-11, -1.20227e-11, -2.55975e-08, -1.42781e-12, -1.39401e-11, -1.42781e-12, -2.56181e-08
5, 40, 2.95, -5467.94, -1.14912e-11, -1.36016e-11, -1.14912e-11, -2.57752e-08, -1.65697e-12, -1.36016e-11, -1.65697e-12, -2.57963e-08
5, 41, 2.955, -5839.24, -1.14371e-11, -1.33226e-11, -1.14371e-11, -2.5954e-08, -2.35384e-12, -1.33226e-11, -2.35384e-12, -2.59744e-08
5, 42, 2.96, -6211.69, -1.14387e-11, -1.27591e-11, -1.14387e-11, -2.61304e-08, -1.91374e-12, -1.27591e-11, -1.91374e-12, -2.61483e-08
5, 43, 2.965, -6585.36, -1.0851e-11, -1.24692e-11, -1.0851e-11, -2.6306e-08, -2.39345e-12, -1.24692e-11, -2.39345e-12, -2.6325e-08
5, 44, 2.97, -6960.31, -1.08193e-11, -1.23157e-11, -1.08193e-11, -2.6479e-08, -2.44519e-12, -1.23157e-11, -2.44519e-12, -2.64953e-08
5, 45, 2.975, -7336.61, -1.02503e-11, -1.15249e-11, -1.02503e-11, -2.66513e-08, -2.41794e-12, -1.15249e-11, -2.41794e-12, -2.66679e-08
5, 46, 2.98, -7714.33, -2.07465e-10, -1.82858e-10, -2.07465e-10, -2.69812e-08, 7.78438e-11, -1.82858e-10, 7.78438e-11, -2.6225e-08
5, 47, 2.985, -8093.54, -1.99225e-10, -1.77616e-10, -1.99225e-10, -2.71465e-08, 7.25392e-11, -1.77616e-10, 7.25392e-11, -2.64243e-08
5, 48, 2.99, -8474.33, -1.91242e-10, -1.71994e-10, -1.91242e-10, -2.73049e-08, 6.7254e-11, -1.71994e-10, 6.7254e-11, -2.66157e-08
5, 49, 2.995, -8856.77, -1.83238e-10, -1.66374e-10, -1.83238e-10, -2.74654e-08, 6.29635e-11, -1.66374e-10, 6.29635e-11, -2.68074e-08
5, 50, 3, -9240.93, -1.74983e-10, -1.60648e-10, -1.74983e-10, -2.76205e-08, 5.86011e-11, -1.60648e-10, 5.86011e-11, -2.69914e-08
5, 51, 3, -9240.93, 3.55618e-14, -1.26099e-13, 3.55618e-14, -6.11067e-12, 2.80377e-13, -1.26099e-13, 2.80377e-13, -9.59233e-13
6, 1, 3.0025, -8856.77, 1.72858e-10, 1.54474e-10, 1.72858e-10, -2.77683e-08, -5.41236e-11, 1.54474e-10, -5.41236e-11, -2.83536e-08
6, 2, 3.005, -8474.33, 1.81333e-10, 1.59745e-10, 1.81333e-10, -2.7605e-08, -5.68237e-11, 1.59745e-10, -5.68237e-11, -2.82181e-08
6, 3, 3.0075, -8093.54, 1.89741e-10, 1.65066e-10, 1.89741e-10, -2.74365e-08, -6.11518e-11, 1.65066e-10, -6.11518e-11, -2.80803e-08
6, 4, 3.01, -7714.33, 1.97981e-10, 1.707e-10, 1.97981e-10, -2.72686e-08, -6.52433e-11, 1.707e-10, -6.52433e-11, -2.79431e-08
6, 5, 3.0125, -7336.61, 2.06247e-10, 1.75821e-10, 2.06247e-10, -2.70965e-08, -7.01546e-11, 1.75821e-10, -7.01546e-11, -2.78027e-08
6, 6, 3.015, -6960.31, 2.1491e-10, 1.80844e-10, 2.1491e-10, -2.69246e-08, -7.53176e-11, 1.80844e-10, -7.53176e-11, -2.76634e-08
6, 7, 3.0175, -6585.36, 1.44642e-11, 6.09634e-12, 1.44642e-11, -2.69006e-08, 3.51055e-12, 6.09634e-12, 3.51055e-12, -2.6874e-08
6, 8, 3.02, -6211.69, 1.49132e-11, 5.83636e-12, 1.49132e-11, -2.67243e-08, 3.92871e-12, 5.83636e-12, 3.92871e-12, -2.66986e-08
6, 9, 3.0225, -5839.24, 1.52915e-11, 6.14372e-12, 1.52915e-11, -2.65476e-08, 3.49785e-12, 6.14372e-12, 3.49785e-12, -2.65213e-08
6, 10, 3.025, -5467.94, 1.60601e-11, 6.13173e-12, 1.60601e-11, -2.6371e-08, 3.91087e-12, 6.13173e-12, 3.91087e-12, -2.63407e-08
6, 11, 3.0275, -5097.74, 1.63631e-11, 6.12245e-12, 1.63631e-11, -2.61942e-08, 3.52391e-12, 6.12245e-12, 3.52391e-12, -2.61619e-08
6, 12, 3.03, -4728.56, 1.73755e-11, 5.89651e-12, 1.73755e-11, -2.60089e-08, 3.02278e-12, 5.89651e-12, 3.02278e-12, -2.59774e-08
6, 13, 3.0325, -4360.37, 1.77423e-11, 5.99426e-12, 1.77423e-11, -2.58275e-08, 3.41027e-12, 5.99426e-12, 3.41027e-12, -2.57961e-08
6, 14, 3.035, -3993.09, 1.86838e-11, 5.6351e-12, 1.86838e-11, -2.56481e-08, 3.10493e-12, 5.6351e-12, 3.10493e-12, -2.5614e-08
6, 15, 3.0375, -3626.69, 1.91182e-11, 5.5768e-12, 1.91182e-11, -2.547e-08, 2.72779e-12, 5.5768e-12, 2.72779e-12, -2.54345e-08
6, 16, 3.04, -3261.1, 2.00404e-11, 5.37099e-12, 2.00404e-11, -2.52852e-08, 2.15581e-12, 5.37099e-12, 2.15581e-12, -2.52491e-08
6, 17, 3.0425, -2896.28, 2.06987e-11, 4.85821e-12, 2.06987e-11, -2.51065e-08, 2.25676e-12, 4.85821e-12, 2.25676e-12, -2.50678e-08
6, 18, 3.045, -2532.18, 2.12843e-11, 4.31987e-12, 2.12843e-11, -2.49237e-08, 1.92751e-12, 4.31987e-12, 1.92751e-12, -2.48848e-08
6, 19, 3.0475, -2168.76, 2.22445e-11, 3.92249e-12, 2.22445e-11, -2.47464e-08, 7.11376e-13, 3.92249e-12, 7.11376e-13, -2.47074e-08
6, 20, 3.05, -1805.96, 2.27705e-11, 3.54335e-12, 2.27705e-11, -2.45713e-08, 6.27026e-13, 3.54335e-12, 6.27026e-13, -2.45313e-08
6, 21, 3.0525, -1443.76, 2.36904e-11, 2.98396e-12, 2.36904e-11, -2.43897e-08, 1.90855e-13, 2.98396e-12, 1.90855e-13, -2.43456e-08
6, 22, 3.055, -1082.1, 2.42565e-11, 2.49779e-12, 2.42565e-11, -2.42092e-08, -6.51473e-13, 2.49779e-12, -6.51473e-13, -2.41661e-08
6, 23, 3.0575, -720.943, 2.50728e-11, 2.08975e-12, 2.50728e-11, -2.40291e-08, -1.31653e-12, 2.08975e-12, -1.31653e-12, -2.3986e-08
6, 24, 3.06, -360.256, 2.59191e-11, 7.9087e-13, 2.59191e-11, -2.38573e-08, -1.98227e-12, 7.9087e-13, -1.98227e-12, -2.38143e-08
6, 25, 3.0625, -1.59273e-08, 2.68787e-11, 5.2242e-13, 2.68787e-11, -2.36817e-08, -2.93922e-12, 5.2242e-13, -2.93922e-12, -2.36367e-08
6, 26, 3.065, 359.862, 2.77468e-11, -4.12151e-13, 2.77468e-11, -2.35064e-08, -3.79041e-12, -4.12151e-13, -3.79041e-12, -2.34608e-08
6, 27, 3.0675, 719.365, 2.83437e-11, -1.70363e-12, 2.83437e-11, -2.33342e-08, -4.8393e-12, -1.70363e-12, -4.8393e-12, -2.32878e-08
6, 28, 3.07, 1078.54, 2.9008e-11, -2.59861e-12, 2.9008e-11, -2.3159e-08, -5.90625e-12, -2.59861e-12, -5.90625e-12, -2.31125e-08
6, 29, 3.0725, 1437.43, 2.98413e-11, -3.81631e-12, 2.98413e-11, -2.29908e-08, -6.9002e-12, -3.81631e-12, -6.9002e-12, -2.29437e-08
6, 30, 3.075, 1796.05, 3.07553e-11, -4.73224e-12, 3.07553e-11, -2.28231e-08, -8.25855e-12, -4.73224e-12, -8.25855e-12, -2.2775e-08
6, 31, 3.0775, 2154.45, 3.12624e-11, -6.56299e-12, 3.12624e-11, -2.26536e-08, -9.35465e-12, -6.56299e-12, -9.35465e-12, -2.26056e-08
6, 32, 3.08, 2512.64, 3.2323e-11, -7.62433e-12, 3.2323e-11, -2.24859e-08, -1.09193e-11, -7.62433e-12, -1.09193e-11, -2.24373e-08
6, 33, 3.0825, 2870.66, 3.30338e-11, -8.68857e-12, 3.30338e-11, -2.23234e-08, -1.24411e-11, -8.68857e-12, -1.24411e-11, -2.22738e-08
6, 34, 3.085, 3228.53, 3.39132e-11, -1.08674e-11, 3.39132e-11, -2.21591e-08, -1.38987e-11, -1.08674e-11, -1.38987e-11, -2.21106e-08
6, 35, 3.0875, 3586.29, 3.4338e-11, -1.27607e-11, 3.4338e-11, -2.19957e-08, -1.53419e-11, -1.27607e-11, -1.53419e-11, -2.19482e-08
6, 36, 3.09, 3943.95, 3.5081e-11, -1.46164e-11, 3.5081e-11, -2.18355e-08, -1.70428e-11, -1.46164e-11, -1.70428e-11, -2.17872e-08
6, 37, 3.0925, 4301.55, 3.55591e-11, -1.64774e-11, 3.55591e-11, -2.16779e-08, -1.86223e-11, -1.64774e-11, -1.86223e-11, -2.16292e-08
6, 38, 3.095, 4659.11, 4.01029e-11, -2.39626e-11, 4.01029e-11, -2.15123e-08, -1.79497e-11, -2.39626e-11, -1.79497e-11, -2.14577e-08
6, 39, 3.0975, 5016.64, 4.08098e-11, -2.66707e-11, 4.08098e-11, -2.13549e-08, -1.93996e-11, -2.66707e-11, -1.93996e-11, -2.12999e-08
6, 40, 3.1, 5374.18, 4.18066e-11, -2.96002e-11, 4.18066e-11, -2.12002e-08, -2.10596e-11, -2.96002e-11, -2.10596e-11, -2.11456e-08
6, 41, 3.1025, 5731.75, 4.26014e-11, -3.25297e-11, 4.26014e-11, -2.10464e-08, -2.27436e-11, -3.25297e-11, -2.27436e-11, -2.09903e-08
6, 42, 3.105, 6089.36, 3.77102e-11, -2.3075e-11, 3.77102e-11, -2.09079e-08, -2.60521e-11, -2.3075e-11, -2.60521e-11, -2.08541e-08
6, 43, 3.1075, 6447.04, 2.7819e-11, -6.05566e-12, 2.7819e-11, -2.07748e-08, -2.99399e-11, -6.05566e-12, -2.99399e-11, -2.07229e-08
6, 44, 3.11, 6804.8, 2.78803e-11, -7.84746e-12, 2.78803e-11, -2.06295e-08, -3.17175e-11, -7.84746e-12, -3.17175e-11, -2.05779e-08
6, 45, 3.1125, 7162.68, 2.82329e-11, -9.37187e-12, 2.82329e-11, -2.0484e-08, -3.41503e-11, -9.37187e-12, -3.41503e-11, -2.0432e-08
6, 46, 3.115, 7520.68, 2.74921e-11, -1.14638e-11, 2.74921e-11, -2.03398e-08, -3.61197e-11, -1.14638e-11, -3.61197e-11, -2.02889e-08
6, 47, 3.1175, 7878.82, 2.73943e-11, -1.35961e-11, 2.73943e-11, -2.01981e-08, -3.86175e-11, -1.35961e-11, -3.86175e-11, -2.01469e-08
6, 48, 3.12, 8237.12, 2.69525e-11, -1.55656e-11, 2.69525e-11, -2.0057e-08, -4.08406e-11, -1.55656e-11, -4.08406e-11, -2.00064e-08
6, 49, 3.1225, 8595.61, 2.68216e-11, -1.77841e-11, 2.68216e-11, -1.99198e-08, -4.31962e-11, -1.77841e-11, -4.31962e-11, -1.98699e-08
6, 50, 3.125, 8954.29, 2.64659e-11, -1.95332e-11, 2.64659e-11, -1.97802e-08, -4.56432e-11, -1.95332e-11, -4.56432e-11, -1.9731e-08
6, 51, 3.125, 8954.29, 8.66257e-14, 4.52563e-13, 8.66257e-14, -8.52651e-14, 3.85257e-14, 4.52563e-13, 3.85257e-14, -5.96856e-13
7, 1, 3.1275, 8595.61, -2.24709e-11, 1.88897e-11, -2.24709e-11, -1.91021e-08, 4.81706e-11, 1.88897e-11, 4.81706e-11, -1.91588e-08
7, 2, 3.13, 8237.12, -1.5949e-11, 3.88456e-12, -1.5949e-11, -1.92509e-08, 4.60144e-11, 3.88456e-12, 4.60144e-11, -1.93074e-08
7, 3, 3.1325, 7878.82, -1.67436e-11, 2.23766e-12, -1.67436e-11, -1.94014e-08, 4.37754e-11, 2.23766e-12, 4.37754e-11, -1.94585e-08
7, 4, 3.135, 7520.68, -1.39055e-11, -5.78672e-12, -1.39055e-11, -1.95566e-08, 4.1526e-11, -5.78672e-12, 4.1526e-11, -1.96144e-08
7, 5, 3.1375, 7162.68, -1.11503e-11, -1.27895e-11, -1.11503e-11, -1.97075e-08, 3.97022e-11, -1.27895e-11, 3.97022e-11, -1.9766e-08
7, 6, 3.14, 6804.8, -9.21608e-12, -2.01954e-11, -9.21608e-12, -1.98633e-08, 3.81049e-11, -2.01954e-11, 3.81049e-11, -1.9922e-08
7, 7, 3.1425, 6447.04, -1.05158e-11, -2.07519e-11, -1.05158e-11, -2.00215e-08, 3.61336e-11, -2.07519e-11, 3.61336e-11, -2.00793e-08
7, 8, 3.145, 6089.36, -1.13195e-11, -2.11504e-11, -1.13195e-11, -2.01804e-08, 3.36518e-11, -2.11504e-11, 3.36518e-11, -2.02384e-08
7, 9, 3.1475, 5731.75, -1.23082e-11, -2.12594e-11, -1.23082e-11, -2.03444e-08, 3.16477e-11, -2.12594e-11, 3.16477e-11, -2.04011e-08
7, 10, 3.15, 5374.18, -1.32604e-11, -2.15911e-11, -1.32604e-11, -2.05046e-08, 2.96517e-11, -2.15911e-11, 2.96517e-11, -2.05611e-08
7, 11, 3.1525, 5016.64, -1.42428e-11, -2.20627e-11, -1.42428e-11, -2.06702e-08, 2.77292e-11, -2.20627e-11, 2.77292e-11, -2.07254e-08
7, 12, 3.155, 4659.11, -1.48233e-11, -2.18812e-11, -1.48233e-11, -2.08356e-08, 2.56572e-11, -2.18812e-11, 2.56572e-11, -2.08903e-08
7, 13, 3.1575, 4301.55, -1.2098e-11, -2.69632e-11, -1.2098e-11, -2.09922e-08, 2.65253e-11, -2.69632e-11, 2.65253e-11, -2.10387e-08
7, 14, 3.16, 3943.95, -1.28883e-11, -2.66263e-11, -1.28883e-11, -2.1162e-08, 2.41674e-11, -2.66263e-11, 2.41674e-11, -2.12093e-08
7, 15, 3.1625, 3586.29, -1.37181e-11, -2.59965e-11, -1.37181e-11, -2.13319e-08, 2.23096e-11, -2.59965e-11, 2.23096e-11, -2.13779e-08
7, 16, 3.165, 3228.53, -1.43785e-11, -2.6132e-11, -1.43785e-11, -2.15015e-08, 2.04087e-11, -2.6132e-11, 2.04087e-11, -2.15467e-08
7, 17, 3.1675, 2870.66, -1.49447e-11, -2.53281e-11, -1.49447e-11, -2.16731e-08, 1.88661e-11, -2.53281e-11, 1.88661e-11, -2.17155e-08
7, 18, 3.17, 2512.64, -1.53341e-11, -2.50873e-11, -1.53341e-11, -2.18442e-08, 1.70221e-11, -2.50873e-11, 1.70221e-11, -2.18865e-08
7, 19, 3.1725, 2154.45, -1.53955e-11, -2.46536e-11, -1.53955e-11, -2.20181e-08, 1.55303e-11, -2.46536e-11, 1.55303e-11, -2.20588e-08
7, 20, 3.175, 1796.05, -1.56725e-11, -2.40904e-11, -1.56725e-11, -2.21914e-08, 1.39824e-11, -2.40904e-11, 1.39824e-11, -2.22307e-08
7, 21, 3.1775, 1437.43, -1.60091e-11, -2.36691e-11, -1.60091e-11, -2.23666e-08, 1.23417e-11, -2.36691e-11, 1.23417e-11, -2.24052e-08
7, 22, 3.18, 1078.54, -1.58939e-11, -2.28612e-11, -1.58939e-11, -2.25421e-08, 1.11623e-11, -2.28612e-11, 1.11623e-11, -2.25789e-08
7, 23, 3.1825, 719.365, -1.57886e-11, -2.26961e-11, -1.57886e-11, -2.27181e-08, 9.87216e-12, -2.26961e-11, 9.87216e-12, -2.27555e-08
7, 24, 3.185, 359.862, -1.59258e-11, -2.21933e-11, -1.59258e-11, -2.28967e-08, 8.51288e-12, -2.21933e-11, 8.51288e-12, -2.29322e-08
7, 25, 3.1875, -1.51737e-08, -1.57768e-11, -2.15138e-11, -1.57768e-11, -2.30727e-08, 7.4186e-12, -2.15138e-11, 7.4186e-12, -2.31071e-08
7, 26, 3.19, -360.256, -1.56165e-11, -2.12864e-11, -1.56165e-11, -2.32515e-08, 6.5869e-12, -2.12864e-11, 6.5869e-12, -2.32857e-08
7, 27, 3.1925, -720.943, -1.57744e-11, -2.04549e-11, -1.57744e-11, -2.34252e-08, 5.69395e-12, -2.04549e-11, 5.69395e-12, -2.3458e-08
7, 28, 3.195, -1082.1, -1.54796e-11, -1.99742e-11, -1.54796e-11, -2.36064e-08, 4.90024e-12, -1.99742e-11, 4.90024e-12, -2.36375e-08
7, 29, 3.1975, -1443.76, -1.53354e-11, -1.96553e-11, -1.53354e-11, -2.37902e-08, 3.90366e-12, -1.96553e-11, 3.90366e-12, -2.38206e-08
7, 30, 3.2, -1805.96, -1.50108e-11, -1.87344e-11, -1.50108e-11, -2.39681e-08, 3.14692e-12, -1.87344e-11, 3.14692e-12, -2.39964e-08
7, 31, 3.2025, -2168.76, -1.44831e-11, -1.82315e-11, -1.44831e-11, -2.41508e-08, 2.24743e-12, -1.82315e-11, 2.24743e-12, -2.41802e-08
7, 32, 3.205, -2532.18, -1.43311e-11, -1.76307e-11, -1.43311e-11, -2.43306e-08, 1.34616e-12, -1.76307e-11, 1.34616e-12, -2.4356e-08
7, 33, 3.2075, -2896.28, -1.44338e-11, -1.73776e-11, -1.44338e-11, -2.45127e-08, 1.21153e-12, -1.73776e-11, 1.21153e-12, -2.45384e-08
7, 34, 3.21, -3261.1, -1.38133e-11, -1.67303e-11, -1.38133e-11, -2.46919e-08, 4.78683e-13, -1.67303e-11, 4.78683e-13, -2.47172e-08
7, 35, 3.2125, -3626.69, -1.33935e-11, -1.61065e-11, -1.33935e-11, -2.48744e-08, -3.59934e-13, -1.61065e-11, -3.59934e-13, -2.48984e-08
7, 36, 3.215, -3993.09, -1.2989e-11, -1.55252e-11, -1.2989e-11, -2.50572e-08, -2.2097e-13, -1.55252e-11, -2.2097e-13, -2.50788e-08
7, 37, 3.2175, -4360.37, -1.27412e-11, -1.50594e-11, -1.27412e-11, -2.52384e-08, -9.41219e-13, -1.50594e-11, -9.41219e-13, -2.52588e-08
7, 38, 3.22, -4728.56, -1.25432e-11, -1.45967e-11, -1.25432e-11, -2.54149e-08, -7.18096e-13, -1.45967e-11, -7.18096e-13, -2.54379e-08
7, 39, 3.2225, -5097.74, -1.21938e-11, -1.40343e-11, -1.21938e-11, -2.55975e-08, -1.57957e-12, -1.40343e-11, -1.57957e-12, -2.56185e-08
7, 40, 3.225, -5467.94, -1.1913e-11, -1.38194e-11, -1.1913e-11, -2.57736e-08, -1.64466e-12, -1.38194e-11, -1.64466e-12, -2.57952e-08
7, 41, 3.2275, -5839.24, -1.15477e-11, -1.32558e-11, -1.15477e-11, -2.59543e-08, -1.99082e-12, -1.32558e-11, -1.99082e-12, -2.59746e-08
7, 42, 3.23, -6211.69, -1.12309e-11, -1.27455e-11, -1.12309e-11, -2.61296e-08, -2.42911e-12, -1.27455e-11, -2.42911e-12, -2.61484e-08
7, 43, 3.2325, -6585.36, -1.09992e-11, -1.22464e-11, -1.09992e-11, -2.63067e-08, -2.71448e-12, -1.22464e-11, -2.71448e-12, -2.63254e-08
7, 44, 3.235, -6960.31, -1.09795e-11, -1.24777e-11, -1.09795e-11, -2.64792e-08, -2.7581e-12, -1.24777e-11, -2.7581e-12, -2.64968e-08
7, 45, 3.2375, -7336.61, -1.02529e-11, -1.16023e-11, -1.02529e-11, -2.6652e-08, -2.42097e-12, -1.16023e-11, -2.42097e-12, -2.6667e-08
7, 46, 3.24, -7714.33, -2.07491e-10, -1.82726e-10, -2.07491e-10, -2.69806e-08, 7.78941e-11, -1.82726e-10, 7.78941e-11, -2.62258e-08
7, 47, 3.2425, -8093.54, -1.99317e-10, -1.77505e-10, -1.99317e-10, -2.71451e-08, 7.23707e-11, -1.77505e-10, 7.23707e-11, -2.64227e-08
7, 48, 3.245, -8474.33, -1.91381e-10, -1.71852e-10, -1.91381e-10, -2.73056e-08, 6.73023e-11, -1.71852e-10, 6.73023e-11, -2.66153e-08
7, 49, 3.2475, -8856.77, -1.82884e-10, -1.66371e-10, -1.82884e-10, -2.74667e-08, 6.29021e-11, -1.66371e-10, 6.29021e-11, -2.68081e-08
7, 50, 3.25, -9240.93, -1.74854e-10, -1.60582e-10, -1.74854e-10, -2.76208e-08, 5.85518e-11, -1.60582e-10, 5.85518e-11, -2.69909e-08
7, 51, 3.25, -9240.93, 1.83744e-13, -1.68754e-13, 1.83744e-13, -1.26477e-12, 7.39884e-14, -1.68754e-13, 7.39884e-14, 1.93268e-12
8, 1, 3.25125, -8856.77, 1.72998e-10, 1.54595e-10, 1.72998e-10, -2.77669e-08, -5.38505e-11, 1.54595e-10, -5.38505e-11, -2.83525e-08
8, 2, 3.2525, -8474.33, 1.81147e-10, 1.59687e-10, 1.81147e-10, -2.76049e-08, -5.73085e-11, 1.59687e-10, -5.73085e-11, -2.82198e-08
8, 3, 3.25375, -8093.54, 1.89482e-10, 1.6536e-10, 1.89482e-10, -2.74393e-08, -6.10609e-11, 1.6536e-10, -6.10609e-11, -2.80817e-08
8, 4, 3.255, -7714.33, 1.97897e-10, 1.70416e-10, 1.97897e-10, -2.72699e-08, -6.54216e-11, 1.70416e-10, -6.54216e-11, -2.79427e-08
8, 5, 3.25625, -7336.61, 2.06127e-10, 1.75594e-10, 2.06127e-10, -2.70993e-08, -7.0309e-11, 1.75594e-10, -7.0309e-11, -2.78039e-08
8, 6, 3.2575, -6960.31, 2.14744e-10, 1.80739e-10, 2.14744e-10, -2.69235e-08, -7.50663e-11, 1.80739e-10, -7.50663e-11, -2.76627e-08
8, 7, 3.25875, -6585.36, 1.44158e-11, 6.08653e-12, 1.44158e-11, -2.68994e-08, 3.5663e-12, 6.08653e-12, 3.5663e-12, -2.68728e-08
8, 8, 3.26, -6211.69, 1.47457e-11, 5.99569e-12, 1.47457e-11, -2.67239e-08, 3.98617e-12, 5.99569e-12, 3.98617e-12, -2.66969e-08
8, 9, 3.26125, -5839.24, 1.53475e-11, 6.39913e-12, 1.53475e-11, -2.6548e-08, 3.91433e-12, 6.39913e-12, 3.91433e-12, -2.65197e-08
8, 10, 3.2625, -5467.94, 1.59222e-11, 5.82516e-12, 1.59222e-11, -2.63701e-08, 3.73311e-12, 5.82516e-12, 3.73311e-12, -2.63428e-08
8, 11, 3.26375, -5097.74, 1.64624e-11, 5.7726e-12, 1.64624e-11, -2.61868e-08, 3.30013e-12, 5.7726e-12, 3.30013e-12, -2.6156e-08
8, 12, 3.265, -4728.56, 1.72347e-11, 5.98765e-12, 1.72347e-11, -2.60073e-08, 3.37622e-12, 5.98765e-12, 3.37622e-12, -2.59738e-08
8, 13, 3.26625, -4360.37, 1.8184e-11, 5.86599e-12, 1.8184e-11, -2.58298e-08, 3.43343e-12, 5.86599e-12, 3.43343e-12, -2.57964e-08
8, 14, 3.2675, -3993.09, 1.85141e-11, 5.84502e-12, 1.85141e-11, -2.56505e-08, 3.07886e-12, 5.84502e-12, 3.07886e-12, -2.56175e-08
8, 15, 3.26875, -3626.69, 1.93492e-11, 5.39778e-12, 1.93492e-11, -2.54683e-08, 2.6466e-12, 5.39778e-12, 2.6466e-12, -2.54335e-08
8, 16, 3.27, -3261.1, 2.02116e-11, 5.16683e-12, 2.02116e-11, -2.52891e-08, 2.32266e-12, 5.16683e-12, 2.32266e-12, -2.52537e-08
8, 17, 3.27125, -2896.28, 2.0663e-11, 4.91513e-12, 2.0663e-11, -2.5104e-08, 2.00042e-12, 4.91513e-12, 2.00042e-12, -2.50679e-08
8, 18, 3.2725, -2532.18, 2.18247e-11, 4.86762e-12, 2.18247e-11, -2.49306e-08, 1.59886e-12, 4.86762e-12, 1.59886e-12, -2.48917e-08
8, 19, 3.27375, -2168.76, 2.213e-11, 4.14073e-12, 2.213e-11, -2.4745e-08, 1.12298e-12, 4.14073e-12, 1.12298e-12, -2.4704e-08
8, 20, 3.275, -1805.96, 2.31549e-11, 3.43938e-12, 2.31549e-11, -2.45655e-08, 4.02124e-13, 3.43938e-12, 4.02124e-13, -2.45226e-08
8, 21, 3.27625, -1443.76, 2.36035e-11, 2.96489e-12, 2.36035e-11, -2.43824e-08, -1.11524e-13, 2.96489e-12, -1.11524e-13, -2.43406e-08
8, 22, 3.2775, -1082.1, 2.44415e-11, 2.64387e-12, 2.44415e-11, -2.42069e-08, -5.74509e-13, 2.64387e-12, -5.74509e-13, -2.41646e-08
8, 23, 3.27875, -720.943, 2.49191e-11, 1.83884e-12, 2.49191e-11, -2.40322e-08, -1.35195e-12, 1.83884e-12, -1.35195e-12, -2.39885e-08
8, 24, 3.28, -360.256, 2.57004e-11, 8.18291e-13, 2.57004e-11, -2.38593e-08, -1.87041e-12, 8.18291e-13, -1.87041e-12, -2.38145e-08
8, 25, 3.28125, -1.66974e-08, 2.68032e-11, 3.51253e-13, 2.68032e-11, -2.36811e-08, -2.92492e-12, 3.51253e-13, -2.92492e-12, -2.36363e-08
8, 26, 3.2825, 359.862, 2.75904e-11, -5.63576e-13, 2.75904e-11, -2.35036e-08, -3.86138e-12, -5.63576e-13, -3.86138e-12, -2.34572e-08
8, 27, 3.28375, 719.365, 2.828e-11, -1.69304e-12, 2.828e-11, -2.33321e-08, -5.06983e-12, -1.69304e-12, -5.06983e-12, -2.32855e-08
8, 28, 3.285, 1078.54, 2.90529e-11, -2.36036e-12, 2.90529e-11, -2.31601e-08, -6.03985e-12, -2.36036e-12, -6.03985e-12, -2.31124e-08
8, 29, 3.28625, 1437.43, 2.9883e-11, -3.64797e-12, 2.9883e-11, -2.29895e-08, -6.99379e-12, -3.64797e-12, -6.99379e-12, -2.29429e-08
8, 30, 3.2875, 1796.05, 3.08435e-11, -5.01193e-12, 3.08435e-11, -2.28218e-08, -8.2461e-12, -5.01193e-12, -8.2461e-12, -2.27751e-08
8, 31, 3.28875, 2154.45, 3.15013e-11, -6.43629e-12, 3.15013e-11, -2.26534e-08, -9.58866e-12, -6.43629e-12, -9.58866e-12, -2.26057e-08
8, 32, 3.29, 2512.64, 3.2115e-11, -7.73871e-12, 3.2115e-11, -2.2488e-08, -1.07862e-11, -7.73871e-12, -1.07862e-11, -2.24397e-08
8, 33, 3.29125, 2870.66, 3.31328e-11, -9.06644e-12, 3.31328e-11, -2.23218e-08, -1.22519e-11, -9.06644e-12, -1.22519e-11, -2.22726e-08
8, 34, 3.2925, 3228.53, 3.37475e-11, -1.10227e-11, 3.37475e-11, -2.2157e-08, -1.37537e-11, -1.10227e-11, -1.37537e-11, -2.21091e-08
8, 35, 3.29375, 3586.29, 3.42056e-11, -1.27976e-11, 3.42056e-11, -2.19978e-08, -1.58799e-11, -1.27976e-11, -1.58799e-11, -2.19495e-08
8, 36, 3.295, 3943.95, 3.50171e-11, -1.44879e-11, 3.50171e-11, -2.18368e-08, -1.7092e-11, -1.44879e-11, -1.7092e-11, -2.17877e-08
8, 37, 3.29625, 4301.55, 3.56717e-11, -1.66466e-11, 3.56717e-11, -2.16772e-08, -1.90185e-11, -1.66466e-11, -1.90185e-11, -2.16281e-08
8, 38, 3.2975, 4659.11, 3.99806e-11, -2.37462e-11, 3.99806e-11, -2.15103e-08, -1.79064e-11, -2.37462e-11, -1.79064e-11, -2.14555e-08
8, 39, 3.29875, 5016.64, 4.095e-11, -2.65156e-11, 4.095e-11, -2.13553e-08, -1.9287e-11, -2.65156e-11, -1.9287e-11, -2.12997e-08
8, 40, 3.3, 5374.18, 4.18154e-11, -2.94394e-11, 4.18154e-11, -2.11997e-08, -2.1116e-11, -2.94394e-11, -2.1116e-11, -2.1144e-08
8, 41, 3.30125, 5731.75, 4.25184e-11, -3.25311e-11, 4.25184e-11, -2.10455e-08, -2.26696e-11, -3.25311e-11, -2.26696e-11, -2.099e-08
8, 42, 3.3025, 6089.36, 3.75597e-11, -2.31016e-11, 3.75597e-11, -2.09065e-08, -2.59709e-11, -2.31016e-11, -2.59709e-11, -2.08523e-08
8, 43, 3.30375, 6447.04, 2.81944e-11, -6.38921e-12, 2.81944e-11, -2.07764e-08, -2.97937e-11, -6.38921e-12, -2.97937e-11, -2.07257e-08
8, 44, 3.305, 6804.8, 2.80016e-11, -7.79915e-12, 2.80016e-11, -2.06284e-08, -3.19548e-11, -7.79915e-12, -3.19548e-11, -2.05764e-08
8, 45, 3.30625, 7162.68, 2.8027e-11, -9.54093e-12, 2.8027e-11, -2.04809e-08, -3.41357e-11, -9.54093e-12, -3.41357e-11, -2.04293e-08
8, 46, 3.3075, 7520.68, 2.7418e-11, -1.17158e-11, 2.7418e-11, -2.03378e-08, -3.63754e-11, -1.17158e-11, -3.63754e-11, -2.02873e-08
8, 47, 3.30875, 7878.82, 2.71119e-11, -1.35159e-11, 2.71119e-11, -2.01983e-08, -3.83238e-11, -1.35159e-11, -3.83238e-11, -2.01473e-08
8, 48, 3.31, 8237.12, 2.69594e-11, -1.53907e-11, 2.69594e-11, -2.00568e-08, -4.06392e-11, -1.53907e-11, -4.06392e-11, -2.00059e-08
8, 49, 3.31125, 8595.61, 2.67021e-11, -1.72462e-11, 2.67021e-11, -1.99201e-08, -4.31759e-11, -1.72462e-11, -4.31759e-11, -1.98696e-08
8, 50, 3.3125, 8954.29, 2.63724e-11, -1.94388e-11, 2.63724e-11, -1.97829e-08, -4.5491e-11, -1.94388e-11, -4.5491e-11, -1.97335e-08
8, 51, 3.3125, 8954.29, 1.11665e-13, 2.91249e-13, 1.11665e-13, 1.35003e-13, -3.00335e-14, 2.91249e-13, -3.00335e-14, 3.33955e-13
